data_1.lmp 

484 	 atoms 
3  atom types
0.0      14.478999999999999  xlo xhi
1.9401860000000006    14.479  ylo yhi
0.0      44.457999999999998  zlo zhi
    -7.2394999999999952                       0                       0  xy xz yz


Atoms 

     1   1      7.2394999999999996      14.210800000000001                       0
     2   1      8.6869999999999994      11.702999999999999                       0
     3   1      13.031000000000001      4.1799999999999997                       0
     4   1      7.2400000000000002      9.1959999999999997                       0
     5   1      2.8959999999999999      6.6879999999999997                       0
     6   1      4.3440000000000003      9.1959999999999997                       0
     7   1      4.3440000000000003      4.1799999999999997                       0
     8   1                   1.448      9.1959999999999997                       0
     9   1      7.2400000000000002      4.1799999999999997                       0
    10   1                  -1.448      9.1959999999999997                       0
    11   1                  10.135      4.1799999999999997                       0
    12   1                  10.135      9.1959999999999997                       0
    13   1                  11.583      6.6879999999999997                       0
    14   1      8.6880000000000006      6.6879999999999997                       0
    15   1                       0      6.6879999999999997                       0
    16   1      5.7919999999999998      6.6879999999999997                       0
    17   1      4.3434999999999997      14.210800000000001                       0
    18   1     -2.8959999999999999      11.702999999999999                       0
    19   1                   1.448      4.1799999999999997                       0
    20   1      5.7919999999999998      11.702999999999999                       0
    21   1                 -1.4475      14.210800000000001                       0
    22   1     -4.3434999999999997      14.210800000000001                       0
    23   1                       0      11.702999999999999                       0
    24   1      1.4484999999999999      14.210800000000001                       0
    25   1      2.8959999999999999      11.702999999999999                       0
    26   1                       0                   5.016      2.3639999999999999
    27   1      8.6880000000000006                   5.016      2.3639999999999999
    28   1                  11.583                   5.016      2.3639999999999999
    29   1     -2.8959999999999999                  10.032      2.3639999999999999
    30   1      5.7919999999999998                   5.016      2.3639999999999999
    31   1                  10.135                   7.524      2.3639999999999999
    32   1                  10.135                   2.508      2.3639999999999999
    33   1     -4.3434999999999997                 12.5388      2.3639999999999999
    34   1                  -1.448                   7.524      2.3639999999999999
    35   1      7.2400000000000002                   2.508      2.3639999999999999
    36   1      7.2394999999999996                 12.5388      2.3639999999999999
    37   1      5.7919999999999998                  10.032      2.3639999999999999
    38   1      2.8959999999999999                  10.032      2.3639999999999999
    39   1      2.8959999999999999                   5.016      2.3639999999999999
    40   1      7.2400000000000002                   7.524      2.3639999999999999
    41   1      4.3440000000000003                   2.508      2.3639999999999999
    42   1                 -1.4475                 12.5388      2.3639999999999999
    43   1      1.4484999999999999                 12.5388      2.3639999999999999
    44   1      4.3440000000000003                   7.524      2.3639999999999999
    45   1      4.3434999999999997                 12.5388      2.3639999999999999
    46   1                   1.448                   2.508      2.3639999999999999
    47   1                1.24e-13                  10.032      2.3639999999999999
    48   1                   1.448                   7.524      2.3639999999999999
    49   1      8.6869999999999994                  10.032      2.3639999999999999
    50   1      13.031000000000001                   2.508      2.3639999999999999
    51   1      7.2171900000000004      5.7481900000000001      4.6867299999999998
    52   1     -4.4300300000000004      10.891400000000001      4.6713399999999998
    53   1      7.2926000000000002      10.845000000000001      4.7949000000000002
    54   1      2.7959499999999999      8.3323900000000002      4.6771200000000004
    55   1      8.7247599999999998      8.3894300000000008      4.8486099999999999
    56   1      1.4360999999999999      11.045500000000001      4.7408000000000001
    57   1                -2.88287      8.4450199999999995      4.7081299999999997
    58   1      5.7833199999999998      8.2356999999999996                 4.65083
    59   1      4.2308500000000002                  10.895      4.6619000000000002
    60   1   -0.074870199999999998      8.4204000000000008      4.7736499999999999
    61   1      10.122999999999999      6.0025899999999996      4.7030500000000002
    62   1                 -1.6793                 10.9703      4.7571500000000002
    63   1      4.3773900000000001      5.7336600000000004      4.6676200000000003
    64   1      2.9809199999999998      13.487399999999999                 4.62629
    65   1     -5.9316599999999999                 13.2692      4.8478000000000003
    66   1                 2.76328      3.1517300000000001      4.7976000000000001
    67   1                 1.45512      5.7975599999999998      4.6229699999999996
    68   1     -2.9434300000000002      13.527100000000001      4.8243999999999998
    69   1    0.029279199999999998                 3.39913      4.8054300000000003
    70   1   -0.074182200000000004      13.370100000000001      4.5715399999999997
    71   1                -1.50603      5.9592000000000001      4.7137599999999997
    72   1      8.6221800000000002      3.3601899999999998      4.6872499999999997
    73   1      5.6794900000000004      3.3185199999999999      4.6916900000000004
    74   1                 11.6434      3.3999700000000002      4.7101699999999997
    75   1      5.7488599999999996                 13.3911      4.7377599999999997
    76   1      5.8414000000000001                 11.7385      6.9366099999999999
    77   1      13.024699999999999                 4.24024      7.1253500000000001
    78   1      7.2310100000000004      9.0951900000000006      7.0020899999999999
    79   1      4.4215999999999998      14.286099999999999      7.0460399999999996
    80   1      2.9312499999999999      6.5988699999999998      7.1083299999999996
    81   1      1.3432299999999999                 14.3721      6.9108000000000001
    82   1     -2.9851100000000002                 11.6349      7.2240799999999998
    83   1                -1.35741      14.174099999999999      7.1058899999999996
    84   1  -0.0097391300000000004      11.612500000000001      6.8992399999999998
    85   1     -4.3630300000000002                 14.2637      7.1737900000000003
    86   1      2.9657499999999999                 11.8973      6.9855700000000001
    87   1      7.2552700000000003      14.327999999999999      7.1948299999999996
    88   1      8.5801999999999996                 11.7409      7.2069299999999998
    89   1      1.5109900000000001      4.2932300000000003      7.0900800000000004
    90   1      4.5072099999999997      9.0509799999999991      7.0267499999999998
    91   1    0.045633399999999998      6.7156700000000003      7.2164900000000003
    92   1      1.6819999999999999      9.2226400000000002                 7.18086
    93   1                 4.23597      4.2301200000000003      7.0101500000000003
    94   1                 11.6533      6.6668900000000004      7.1173200000000003
    95   1                 10.0855      4.2577499999999997      7.0143300000000002
    96   1     -1.3956500000000001      9.1922300000000003                 7.22316
    97   1                 7.21129      4.2252200000000002      7.1034800000000002
    98   1      8.7160100000000007      6.7011399999999997      6.9606199999999996
    99   1                 5.94015                 6.54535                 6.98949
   100   1                 10.1052      9.2507599999999996      6.9827599999999999
   101   1                 11.3908      4.8885199999999998      9.5193100000000008
   102   1    0.071181800000000003                 10.0952      9.3605400000000003
   103   1      1.3882699999999999                 2.54684      9.4639199999999999
   104   1      5.7168000000000001      5.0544599999999997      9.5072600000000005
   105   1      2.9342100000000002      9.9969699999999992      9.2511700000000001
   106   1      7.2244900000000003      12.524800000000001      9.6057600000000001
   107   1   -0.061084300000000001                 5.05321                 9.47879
   108   1      3.0060799999999999      4.9838500000000003      9.3979499999999998
   109   1                -4.37913                 12.5862      9.6019199999999998
   110   1                -1.51329                 12.4115      9.5640499999999999
   111   1      9.9424200000000003      2.4554999999999998      9.2592800000000004
   112   1      8.5231899999999996      4.9454399999999996      9.3269800000000007
   113   1                 1.37188      7.5518299999999998      9.4140999999999995
   114   1                 1.45783      12.365399999999999      9.3247599999999995
   115   1      8.8447700000000005                 10.0251                 9.42544
   116   1                 10.0289      7.3949100000000003                 9.36707
   117   1                 7.07864      2.2478799999999999      9.4120500000000007
   118   1                 4.34856      12.425800000000001      9.5265699999999995
   119   1      7.2723699999999996      7.5902200000000004      9.5335599999999996
   120   1     -1.4544999999999999                 7.39438      9.5160400000000003
   121   1                 13.0671      2.6801499999999998      9.3512000000000004
   122   1      4.2908600000000003      7.5618600000000002      9.2837899999999998
   123   1      4.2445399999999998      2.6409899999999999      9.4375999999999998
   124   1                 -2.6816      10.020099999999999      9.7764900000000008
   125   1      5.8910999999999998                 10.1434      9.4879099999999994
   126   3                 7.37561      6.8405300000000002      12.898099999999999
   127   2      8.1875199999999992      6.2941799999999999                  12.943
   128   2      6.7786299999999997      6.4049500000000004                 12.2925
   129   3      8.3501100000000008                 3.52068                 26.6662
   130   2      7.5003200000000003                 3.74038      26.315799999999999
   131   2      8.5921800000000008      2.6229200000000001      26.394100000000002
   132   3      2.4654400000000001                 4.93832      22.442599999999999
   133   2      1.7357800000000001      4.5533799999999998                 21.9803
   134   2      3.2697699999999998      5.0269700000000004      21.818999999999999
   135   3     -5.1652500000000003                 10.8774      12.238099999999999
   136   2     -4.4917800000000003                   11.34                 12.8279
   137   2      8.6226199999999995      10.398300000000001      12.792400000000001
   138   3      6.0325300000000004      7.1962799999999998      15.186999999999999
   139   2      6.4732200000000004      7.0009600000000001                 14.3712
   140   2      5.1012000000000004      7.3276500000000002                 15.0039
   141   3     -3.5950600000000001      11.391500000000001                 26.8827
   142   2     -4.4015000000000004      11.000999999999999      26.415700000000001
   143   2     -3.6945700000000001                 12.3308                 26.8565
   144   3     -1.3925099999999999      11.942399999999999      19.611000000000001
   145   2     -1.3314999999999999                 11.3476      18.858499999999999
   146   2     -2.3293200000000001      11.854200000000001      19.996600000000001
   147   3     -5.3622100000000001                 14.4481      17.395199999999999
   148   2      1.1154200000000001      2.1804600000000001                  16.785
   149   2     -5.8229199999999999                 13.7477      17.932200000000002
   150   3     0.57880799999999999      9.4281000000000006                 15.5261
   151   2      1.1902900000000001      9.9311100000000003                 14.9831
   152   2    -0.16830100000000001      9.2308199999999996                 14.9514
   153   3   -0.073589699999999994      13.662000000000001      23.957100000000001
   154   2      7.5145299999999997      2.0589599999999999                 23.8567
   155   2    0.018062999999999999                 13.2326      23.118200000000002
   156   3     -3.7214299999999998                 11.6318      20.459800000000001
   157   2     -4.3469300000000004                 11.2102                 19.7881
   158   2     -4.1581299999999999                 12.5814      20.578199999999999
   159   3      9.1900600000000008      10.618600000000001      18.286799999999999
   160   2     -4.7112600000000002                 10.6875      17.462599999999998
   161   2      8.9459400000000002      9.6401699999999995      18.342600000000001
   162   3      4.7551500000000004      11.849399999999999                 13.2249
   163   2      4.0075200000000004                 12.3261                   12.76
   164   2      5.5759299999999996                 12.3079                 12.8513
   165   3      1.8998699999999999      4.1459000000000001      15.334199999999999
   166   2                 2.71638      4.3271800000000002      15.866899999999999
   167   2      2.2358699999999998      3.2355200000000002      15.044499999999999
   168   3     0.54923900000000003      12.235900000000001      21.456399999999999
   169   2    -0.18276800000000001                 11.8972      20.954999999999998
   170   2                 1.07159                 11.4985                 21.7318
   171   3      5.3559700000000001      5.7060899999999997      23.478100000000001
   172   2      6.3380599999999996                 5.98306      23.587299999999999
   173   2      5.2906700000000004      5.3315799999999998      22.555700000000002
   174   3      7.1918600000000001                 12.9323      12.408899999999999
   175   2      7.4207900000000002      13.815300000000001      12.581799999999999
   176   2      8.0026499999999992                 12.4689                 12.4642
   177   3      5.1109799999999996      5.8621400000000001                 12.0364
   178   2      4.3045799999999996      6.2730899999999998                 11.6747
   179   2      4.9640899999999997      5.2398600000000002                 12.8459
   180   3     -5.9265699999999999      13.720800000000001                 26.8062
   181   2     -6.8527899999999997                 13.8468                 26.4527
   182   2     -5.3578099999999997                 14.0602                 26.1068
   183   3                  4.7702      4.9425299999999996      20.962599999999998
   184   2      4.6451799999999999      5.7500900000000001      20.309000000000001
   185   2      5.1315499999999998      4.1858399999999998      20.438099999999999
   186   3      8.4393799999999999                  11.981      15.526999999999999
   187   2      8.0755499999999998      11.363899999999999                 16.1737
   188   2      7.9470999999999998      11.677899999999999      14.805400000000001
   189   3     -4.6641399999999997                 14.3347                 14.2911
   190   2     -4.7732299999999999      13.567299999999999      14.907400000000001
   191   2     -3.9144299999999999      14.213800000000001                 13.6745
   192   3                   11.49      6.5139100000000001      18.900400000000001
   193   2                -2.34796      6.9648700000000003                 19.5167
   194   2                 10.6722      7.1121400000000001      18.720400000000001
   195   3                -2.78287                 13.4107                 17.1023
   196   2     -2.5112700000000001                 13.2073      18.067499999999999
   197   2     -3.6642600000000001      13.923299999999999      17.051300000000001
   198   3      6.4885099999999998                 5.90761      29.106300000000001
   199   2      5.7519499999999999      6.3872600000000004      28.671700000000001
   200   2      7.2369300000000001                 6.36334      28.655899999999999
   201   3      2.3306200000000001                 5.64595      25.296500000000002
   202   2      1.3666700000000001      5.5630600000000001      25.440200000000001
   203   2      2.4773999999999998      5.5749599999999999      24.349399999999999
   204   3      6.5704799999999999      9.4295500000000008                 23.3842
   205   2      6.8593999999999999      9.5535700000000006      22.471900000000002
   206   2      7.1932099999999997      8.7631099999999993      23.793900000000001
   207   3      2.2019000000000002      3.5542099999999999                 19.3979
   208   2      1.5509500000000001      4.3163900000000002      19.368099999999998
   209   2      1.9047499999999999      2.8932600000000002                 18.7592
   210   3      10.964499999999999      7.8823699999999999      24.726500000000001
   211   2      10.798400000000001      7.0225200000000001      25.177299999999999
   212   2                 10.1538      8.1926500000000004      24.366499999999998
   213   3      7.5247799999999998      7.0102700000000002      26.479399999999998
   214   2      6.7060300000000002      6.4838899999999997                 26.3247
   215   2      7.2401200000000001      7.9040900000000001                 26.5502
   216   3    -0.24646999999999999                 10.1633                 11.9269
   217   2    -0.42056300000000002                 11.0962                 11.8102
   218   2     0.62662200000000001                 10.0943      12.404400000000001
   219   3     -1.4196899999999999      6.4448699999999999                 13.1622
   220   2     -1.0078499999999999      6.4563300000000003      12.285299999999999
   221   2     -1.4944299999999999      7.3341099999999999                 13.5663
   222   3      9.7899200000000004      7.9058200000000003                 15.4924
   223   2      9.2677899999999998      8.1156900000000007                  14.685
   224   2      10.495799999999999      7.2466200000000001      15.326599999999999
   225   3                 10.5406      2.1484399999999999      24.638000000000002
   226   2                 10.5626                 2.32748      23.689699999999998
   227   2      11.458399999999999      2.3187700000000002      24.962800000000001
   228   3    -0.45187100000000002      5.1423699999999997      24.973099999999999
   229   2    -0.90017800000000003      5.5791599999999999      24.259699999999999
   230   2               -0.222304      4.1996099999999998      24.595400000000001
   231   3      3.9895800000000001                 3.91953                 28.0305
   232   2      3.4953400000000001                 3.32775                  27.419
   233   2      4.7795100000000001      3.4157000000000002      28.357099999999999
   234   3      2.1976300000000002      13.341100000000001                 19.3855
   235   2      2.3809800000000001                 13.4719                 18.4193
   236   2      1.3025500000000001      12.905799999999999                 19.4514
   237   3     -3.7414800000000001      10.406000000000001      16.297699999999999
   238   2                -3.89418      11.031499999999999      15.607200000000001
   239   2     -3.9588399999999999      9.5521899999999995                  15.843
   240   3      2.2574800000000002      4.9920299999999997                 12.8148
   241   2                 1.97997      5.2229400000000004      11.906599999999999
   242   2                 1.55643      4.5223300000000002      13.293799999999999
   243   3      5.6890999999999998      4.4125899999999998                 25.7971
   244   2      4.9252599999999997      4.3876999999999997      26.479399999999998
   245   2      5.3873199999999999      4.7738800000000001      24.949000000000002
   246   3      3.6174400000000002      11.369999999999999                 21.8383
   247   2      2.9077999999999999                 10.8591      21.413399999999999
   248   2                 3.28965      11.599299999999999                 22.6934
   249   3      3.0459399999999999      7.1512900000000004      14.769299999999999
   250   2      2.8549799999999999      7.7907599999999997      14.043699999999999
   251   2      2.8175599999999998      6.2479500000000003                 14.3444
   252   3                  1.9015      9.7833199999999998      20.175000000000001
   253   2                 2.14845      8.9401399999999995                 20.6736
   254   2                 1.26895      9.5813500000000005      19.426100000000002
   255   3      6.1339199999999998                 2.89438      16.382200000000001
   256   2      5.4956100000000001                 2.22018      16.700099999999999
   257   2      6.8229100000000003      2.3126899999999999      15.931800000000001
   258   3      4.4447599999999996      9.2859999999999996                 12.5124
   259   2      4.7971300000000001      9.1834900000000008                 11.5718
   260   2      4.8179999999999996      10.154500000000001      12.698600000000001
   261   3      6.8982999999999999      5.5762799999999997      17.108599999999999
   262   2      6.7557499999999999      4.5761700000000003                 17.0898
   263   2      6.5854600000000003      5.9026100000000001                 16.2881
   264   3      2.4889399999999999      8.3851700000000005      25.764600000000002
   265   2      3.1493099999999998      8.3701699999999999      24.999099999999999
   266   2                 2.29386      7.4212300000000004      25.820599999999999
   267   3                 0.35568                 12.7639      26.652999999999999
   268   2     0.97926599999999997                 12.0205      26.423400000000001
   269   2     0.15457099999999999      13.110300000000001      25.811599999999999
   270   3   -0.042024499999999999      8.5788399999999996      18.471299999999999
   271   2    -0.53193999999999997      9.3084000000000007      18.153400000000001
   272   2     0.72425899999999999      8.3048000000000002      17.793600000000001
   273   3      4.1367500000000001      4.4664200000000003      17.243099999999998
   274   2      4.8315000000000001      3.8394599999999999      17.081299999999999
   275   2      3.5865900000000002      4.1248699999999996      17.942900000000002
   276   3      2.7610899999999998      2.7827600000000001      25.247800000000002
   277   2                 2.63035      3.7462200000000001      25.156500000000001
   278   2                 3.65177      2.5683799999999999                 24.8246
   279   3                 11.9849      4.3966000000000003      20.698399999999999
   280   2                 11.6791                 5.09781      20.133099999999999
   281   2      11.796099999999999      4.6457300000000004      21.671399999999998
   282   3      5.2122099999999998                 11.1097      25.203299999999999
   283   2                 5.73306                 10.7127                 24.5169
   284   2      4.2844899999999999      11.290100000000001                 24.8764
   285   3      6.0115699999999999      14.064399999999999      28.385400000000001
   286   2      6.2527900000000001      14.037000000000001      27.471499999999999
   287   2                 14.0198      2.0312700000000001                 28.7502
   288   3                -2.02224                 13.9992                 26.8202
   289   2     -1.8966799999999999      14.171099999999999                 25.8857
   290   2     -1.3640399999999999                 13.3103      26.956700000000001
   291   3     -1.0606500000000001                 10.8592      17.117699999999999
   292   2    -0.48063400000000001                 10.5381      16.353000000000002
   293   2                -2.00196                  10.718                 16.7424
   294   3     -4.4081999999999999                 14.2081      21.381599999999999
   295   2      2.7425099999999998      2.4420299999999999                 20.7927
   296   2     -3.6749000000000001                 14.3813      21.984300000000001
   297   3                -1.48451      9.5896000000000008      25.941099999999999
   298   2                -1.98116      8.8193900000000003      25.639399999999998
   299   2     -2.1425700000000001                 10.2224      26.326899999999998
   300   3      7.9239600000000001      4.1009799999999998      12.537100000000001
   301   2      7.9198399999999998                 3.99152      11.534800000000001
   302   2      8.7271800000000006      3.6690200000000002                 12.8117
   303   3     -2.0782099999999999      6.2154299999999996      22.986799999999999
   304   2                -1.87293      6.8384099999999997                 22.1981
   305   2                -2.70879      6.7936699999999997      23.523299999999999
   306   3      7.7793999999999999      9.3832799999999992      13.668200000000001
   307   2      7.1678199999999999      9.5876199999999994      14.448700000000001
   308   2      7.4655300000000002      8.4671800000000008                 13.3363
   309   3   -0.026473400000000001      7.4383999999999997                 26.6129
   310   2    -0.74146699999999999      6.8992500000000003                 26.9815
   311   2    -0.32131900000000002      8.4024900000000002                 26.5307
   312   3      10.367599999999999      5.5379100000000001      26.180099999999999
   313   2      9.7359899999999993      6.1064699999999998                 26.6142
   314   2      9.8607499999999995      4.6891699999999998      26.190799999999999
   315   3      4.2701500000000001      6.8005800000000001      18.995000000000001
   316   2      4.6084199999999997      6.1259699999999997      18.351900000000001
   317   2      3.4671799999999999      7.1097999999999999      18.541699999999999
   318   3      2.8810199999999999                 11.9201      24.287500000000001
   319   2      3.0318100000000001      12.847200000000001      24.586400000000001
   320   2                 1.99817      11.505100000000001      24.595099999999999
   321   3      9.1406500000000008      7.2225799999999998      21.277799999999999
   322   2      8.7701100000000007      8.0064600000000006      20.804300000000001
   323   2      8.6684900000000003      6.4728500000000002                 20.8645
   324   3     -1.7236899999999999      5.0774600000000003      27.720500000000001
   325   2      11.849600000000001      5.3067200000000003                 27.5974
   326   2     -1.4835700000000001      4.7980499999999999      26.781400000000001
   327   3      6.2517899999999997      9.6628100000000003      16.138200000000001
   328   2      5.7327599999999999                 10.4975                  16.058
   329   2      5.8983600000000003      8.9193099999999994      15.612299999999999
   330   3      8.3950700000000005      3.2712300000000001                 18.8567
   331   2      8.2991899999999994      3.1746599999999998      17.898299999999999
   332   2                 8.99925      2.5709300000000002                 19.1554
   333   3               -0.315832                 12.7262                 13.2592
   334   2     0.62617400000000001                 13.0189                 13.0176
   335   2    -0.93320400000000003                 13.2705                 12.6838
   336   3                -1.74594      9.1704600000000003                 13.9063
   337   2     -2.6412900000000001      8.9216099999999994                 13.6615
   338   2     -1.3382000000000001      9.5332699999999999      13.037100000000001
   339   3      9.4367900000000002      9.5664400000000001                 23.4621
   340   2      8.7296700000000005      10.219099999999999      23.452999999999999
   341   2     -4.2570399999999999      10.021800000000001      23.136299999999999
   342   3      8.0415799999999997                 12.2187      23.147500000000001
   343   2     -5.7759299999999998      12.829599999999999      22.649100000000001
   344   2                 7.12507      12.647500000000001      23.060400000000001
   345   3      8.2463499999999996      11.090999999999999                 26.0959
   346   2      8.0803600000000007                 11.1325                 25.1249
   347   2                 8.52379                 12.0273      26.327500000000001
   348   3      1.1581600000000001      8.1258400000000002      28.868600000000001
   349   2      1.9858800000000001      7.5654300000000001      28.642700000000001
   350   2     0.67692099999999999      7.7672299999999996      28.058800000000002
   351   3                 2.37398      7.9142900000000003      17.392900000000001
   352   2      2.5770499999999998      7.6137699999999997                 16.4344
   353   2      3.0009700000000001      8.7205399999999997                 17.5015
   354   3                -2.79826                 13.8529      23.648800000000001
   355   2     -2.9110499999999999      12.882899999999999      23.730699999999999
   356   2     -1.8438300000000001      14.011200000000001                 23.6129
   357   3                 12.9702                 3.41492      12.472300000000001
   358   2      13.366300000000001      3.8038500000000002      13.274800000000001
   359   2                 13.2889      3.8799999999999999      11.709899999999999
   360   3      10.319000000000001      2.2418399999999998      21.688199999999998
   361   2                 10.5944                 3.02264      21.169599999999999
   362   2      2.9338299999999999                 14.0267      21.043900000000001
   363   3      5.1430899999999999                 11.8871      19.554400000000001
   364   2      4.9341900000000001                 12.6982                 19.0642
   365   2      4.4067600000000002                 11.7453      20.243400000000001
   366   3      4.2998900000000004      8.0991499999999998                 23.8262
   367   2      5.0752600000000001      8.6448900000000002      23.691600000000001
   368   2      4.5941400000000003      7.1200900000000003                  23.637
   369   3      4.9467100000000004                 12.3987                  15.827
   370   2      4.8319799999999997      12.295999999999999      14.886699999999999
   371   2      4.1832500000000001      12.805300000000001      16.282800000000002
   372   3                0.536435      5.8000699999999998                 18.2776
   373   2     0.91675399999999996      5.7068599999999998                 17.3599
   374   2               -0.129604      6.5748800000000003                 18.2821
   375   3      6.3318899999999996      3.1251000000000002      29.119499999999999
   376   2      6.8546300000000002      2.6586099999999999      28.459700000000002
   377   2      6.5873200000000001      4.0255200000000002      28.873899999999999
   378   3      6.5058400000000001      8.2194099999999999                 18.5382
   379   2      6.3299000000000003                 8.88443      17.793299999999999
   380   2      5.6569799999999999      7.7545500000000001      18.604299999999999
   381   3                 13.0603      2.2771499999999998      18.581099999999999
   382   2                 12.7803      3.1413600000000002                 18.6601
   383   2                 13.4473      2.1480399999999999      17.678699999999999
   384   3                 13.9458      1.9846699999999999                 15.9719
   385   2      6.0873299999999997                 13.7559                 15.8279
   386   2      13.724399999999999                   2.669                 15.3004
   387   3                -2.91811                 11.7822                 13.8714
   388   2                -2.27142      12.355600000000001                 13.3949
   389   2     -2.4317299999999999      10.958600000000001      14.102499999999999
   390   3      10.514799999999999                  8.3209                 12.6515
   391   2                 10.5128      7.4932100000000004                 12.0678
   392   2      10.014699999999999      9.0269499999999994      12.193899999999999
   393   3      7.9446199999999996                 3.51674                 23.0809
   394   2      7.9644599999999999      4.4910199999999998      23.184100000000001
   395   2      8.7412799999999997      3.3516599999999999      22.562799999999999
   396   3      11.200699999999999      3.3083399999999998      15.607799999999999
   397   2                 10.9564      4.2551100000000002                 15.7066
   398   2      11.215999999999999      3.3011499999999998      14.625299999999999
   399   3                 10.5091      5.5683800000000003                 12.9011
   400   2      10.549799999999999      4.7684899999999999      12.335699999999999
   401   2      11.494400000000001      5.8134100000000002                 13.0183
   402   3     0.22645100000000001                  13.116      15.653499999999999
   403   2    -0.33491199999999999      12.825799999999999      16.398199999999999
   404   2    -0.19947200000000001      13.024100000000001                 14.7875
   405   3      5.8764000000000003                 2.47011                 20.0566
   406   2                -1.61487                 14.0593      19.885000000000002
   407   2      6.8244199999999999      2.6218499999999998                 19.7181
   408   3      9.0597200000000004      7.9467999999999996                  18.096
   409   2      8.1161999999999992      7.7389400000000004      18.408300000000001
   410   2      9.0067199999999996                 7.90944      17.130199999999999
   411   3    0.065709900000000002      3.2682000000000002                 21.4194
   412   2    -0.69607699999999995                 3.73665      20.992100000000001
   413   2     0.72684199999999999      2.8971399999999998      20.813700000000001
   414   3     0.87495500000000004                 10.3569      25.560300000000002
   415   2      1.4503299999999999      9.4982600000000001      25.720300000000002
   416   2    -0.10899200000000001      10.213699999999999      25.667100000000001
   417   3    -0.61156900000000003      4.6247999999999996      15.073600000000001
   418   2     0.37131999999999998      4.5515999999999996      15.210699999999999
   419   2    -0.61368299999999998      5.3755699999999997                 14.4762
   420   3      2.5019999999999998      12.768800000000001                 12.3963
   421   2                 2.96712                 14.3706                 12.4909
   422   2      2.3914499999999999      12.519600000000001                 11.4602
   423   3      5.9239300000000004      13.642099999999999      25.655999999999999
   424   2      6.1870399999999997      14.164999999999999      24.867699999999999
   425   2      5.8567400000000003                 12.7363      25.302199999999999
   426   3      4.2561200000000001      6.9175800000000001      27.709599999999998
   427   2      3.5695399999999999      6.2446799999999998      27.443300000000001
   428   2      4.2043100000000004      7.6082200000000002                 27.0566
   429   3     -2.5786899999999999      6.4699099999999996      16.010999999999999
   430   2     -1.8508599999999999      5.7778299999999998                 15.8931
   431   2                 11.7377      6.5170599999999999      16.979099999999999
   432   3      2.0106000000000002                 10.4133                 13.4092
   433   2      2.8288099999999998      9.9659999999999993      13.224500000000001
   434   2      2.3265699999999998                  11.413                 13.1656
   435   3      8.8547999999999991                 4.89947                 15.2034
   436   2                 9.12392      5.4293399999999998      14.454599999999999
   437   2      8.6029999999999998                 5.47302                 15.9511
   438   3      7.3648699999999998      9.8291900000000005      20.592300000000002
   439   2      7.2145400000000004                 10.7689                 20.4495
   440   2      6.8592300000000002      9.3034999999999997      19.961500000000001
   441   3                -2.39174      10.788600000000001      22.789999999999999
   442   2     -2.5637799999999999      10.889699999999999      21.821999999999999
   443   2     -1.5049999999999999      10.473800000000001                  22.965
   444   3     -2.3298399999999999      14.298400000000001                 12.6242
   445   2      4.2598900000000004                  1.9599                 11.9344
   446   2      5.1997799999999996      2.5541299999999998                  13.086
   447   3      8.1842500000000005      12.781599999999999                 19.2531
   448   2      7.2219800000000003      12.991099999999999                 19.3811
   449   2      8.2302300000000006                 11.8904      18.940100000000001
   450   3      6.4919000000000002      9.4031199999999995      26.798200000000001
   451   2                 5.84091      10.103899999999999      26.418600000000001
   452   2      7.3334400000000004      9.8242600000000007      26.701000000000001
   453   3      2.2406700000000002      7.8191499999999996                 22.0656
   454   2      2.1806299999999998      6.8273999999999999      22.258299999999998
   455   2      2.9481999999999999      8.0637399999999992      22.629200000000001
   456   3      5.6002400000000003                  13.215      22.720600000000001
   457   2      5.4921499999999996                 13.7067      21.896000000000001
   458   2      5.0851300000000004                 12.4095                 22.5306
   459   3     0.30438799999999999      9.7193100000000001      22.982900000000001
   460   2     0.87270099999999995      8.9317100000000007      22.914100000000001
   461   2     0.50107299999999999                 10.1866      23.788399999999999
   462   3      7.5114000000000001      5.6290699999999996      19.732900000000001
   463   2      7.7110900000000004      4.6453300000000004      19.938500000000001
   464   2      7.1253299999999999      5.6857600000000001      18.904699999999998
   465   3                0.223664      2.7909899999999999                 24.0061
   466   2    0.097128900000000004      2.7115399999999998                 23.0319
   467   2      1.1723300000000001      2.7088899999999998      24.018999999999998
   468   3                -1.42784      8.0912500000000005      21.182600000000001
   469   2    -0.56135800000000002      8.4190199999999997                 21.0947
   470   2     -2.0121699999999998      8.7998399999999997      21.482199999999999
   471   3                 2.74532                 13.6898                 16.6646
   472   2      2.0541100000000001                 13.3307                 16.0672
   473   2      10.266500000000001                 2.06826      16.369700000000002
   474   3      7.8576699999999997      6.7527299999999997      23.809899999999999
   475   2      8.3347899999999999      6.9370000000000003                 22.9452
   476   2      8.5370600000000003      6.6958900000000003      24.514900000000001
   477   3      3.6806999999999999      10.137700000000001      18.061900000000001
   478   2                 4.41906      10.690099999999999      18.339300000000001
   479   2      3.1101800000000002      10.129200000000001      18.858799999999999
   480   3      5.6674800000000003      4.1212299999999997      13.942600000000001
   481   2      6.6156800000000002      4.2804000000000002      13.773899999999999
   482   2      5.7940199999999997      3.9267500000000002      14.904299999999999
   483   3                 10.4627                 2.77155      12.779199999999999
   484   2                 11.3842      3.0059900000000002      12.470800000000001
