data_1.lmp 

484 	 atoms 
4  atom types
0.0      14.478999999999999  xlo xhi
1.9401860000000006    14.479  ylo yhi
0.0      44.457999999999998  zlo zhi
     -7.239499999999996                       0                       0  xy xz yz


Atoms 

     1   1                       0      1.6719999999999999                       0
     2   1     -5.7919999999999998      11.702999999999999                       0
     3   1                  -1.448      4.1799999999999997                       0
     4   1      7.2400000000000002      9.1959999999999997                       0
     5   1      2.8959999999999999      6.6879999999999997                       0
     6   1      4.3440000000000003      9.1959999999999997                       0
     7   1      4.3440000000000003      4.1799999999999997                       0
     8   1                   1.448      9.1959999999999997                       0
     9   1      7.2400000000000002      4.1799999999999997                       0
    10   1                  -1.448      9.1959999999999997                       0
    11   1                  10.135      4.1799999999999997                       0
    12   1     -4.3440000000000003      9.1959999999999997                       0
    13   1     -2.8959999999999999      6.6879999999999997                       0
    14   1      8.6880000000000006      6.6879999999999997                       0
    15   1                       0      6.6879999999999997                       0
    16   1      5.7919999999999998      6.6879999999999997                       0
    17   1                  11.583      1.6719999999999999                       0
    18   1     -2.8959999999999999      11.702999999999999                       0
    19   1                   1.448      4.1799999999999997                       0
    20   1      5.7919999999999998      11.702999999999999                       0
    21   1      5.7919999999999998      1.6719999999999999                       0
    22   1      2.8959999999999999      1.6719999999999999                       0
    23   1                       0      11.702999999999999                       0
    24   1      8.6880000000000006      1.6719999999999999                       0
    25   1      2.8959999999999999      11.702999999999999                       0
    26   1                       0                   5.016      2.3639999999999999
    27   1      8.6880000000000006                   5.016      2.3639999999999999
    28   1     -2.8959999999999999                   5.016      2.3639999999999999
    29   1     -2.8959999999999999                  10.032      2.3639999999999999
    30   1      5.7919999999999998                   5.016      2.3639999999999999
    31   1     -4.3440000000000003                   7.524      2.3639999999999999
    32   1                  10.135                   2.508      2.3639999999999999
    33   1      2.8959999999999999                       0      2.3639999999999999
    34   1                  -1.448                   7.524      2.3639999999999999
    35   1      7.2400000000000002                   2.508      2.3639999999999999
    36   1                       0                       0      2.3639999999999999
    37   1      5.7919999999999998                  10.032      2.3639999999999999
    38   1      2.8959999999999999                  10.032      2.3639999999999999
    39   1      2.8959999999999999                   5.016      2.3639999999999999
    40   1      7.2400000000000002                   7.524      2.3639999999999999
    41   1      4.3440000000000003                   2.508      2.3639999999999999
    42   1      5.7919999999999998                       0      2.3639999999999999
    43   1      8.6880000000000006                       0      2.3639999999999999
    44   1      4.3440000000000003                   7.524      2.3639999999999999
    45   1                  11.583                       0      2.3639999999999999
    46   1                   1.448                   2.508      2.3639999999999999
    47   1                       0                  10.032      2.3639999999999999
    48   1                   1.448                   7.524      2.3639999999999999
    49   1     -5.7919999999999998                  10.032      2.3639999999999999
    50   1                  -1.448                   2.508      2.3639999999999999
    51   1      7.3109999999999999      5.8860000000000001      4.8869999999999996
    52   1     -4.4329999999999998      10.826000000000001      4.7140000000000004
    53   1      7.1379999999999999                  10.901      4.7220000000000004
    54   1      2.8180000000000001      8.3610000000000007      4.7690000000000001
    55   1      8.6989999999999998      8.4350000000000005      4.9379999999999997
    56   1                    1.54                   10.92      4.8499999999999996
    57   1     -2.7989999999999999      8.4740000000000002      4.8449999999999998
    58   1      5.6609999999999996      8.2799999999999994      4.7130000000000001
    59   1      4.3970000000000002                  10.997      4.7569999999999997
    60   1    0.085999999999999993      8.5489999999999995      5.0199999999999996
    61   1                  10.153      6.0030000000000001      4.8109999999999999
    62   1                  -1.401                  10.974      4.9359999999999999
    63   1      4.4269999999999996      5.7699999999999996                   4.641
    64   1      10.130000000000001     0.89700000000000002      4.8040000000000003
    65   1      1.5649999999999999     0.83799999999999997      4.8479999999999999
    66   1      2.9049999999999998      3.4319999999999999      4.7930000000000001
    67   1                   1.359      5.7549999999999999      4.7530000000000001
    68   1      4.3700000000000001     0.73399999999999999      4.7629999999999999
    69   1   -0.043999999999999997                   3.363                   4.835
    70   1      7.3559999999999999     0.79400000000000004      4.7450000000000001
    71   1     -1.4590000000000001      5.9100000000000001      4.9379999999999997
    72   1      8.6639999999999997      3.3679999999999999      4.7249999999999996
    73   1      5.9189999999999996      3.2589999999999999      4.7599999999999998
    74   1                  11.442      3.3759999999999999      4.8639999999999999
    75   1                  12.961     0.91500000000000004                   4.907
    76   1      5.6779999999999999      11.768000000000001                   7.226
    77   1                  -1.363      4.0919999999999996      7.2229999999999999
    78   1      7.2489999999999997      9.2720000000000002                   7.242
    79   1                  11.589                   1.544      7.3390000000000004
    80   1      2.8399999999999999      6.8310000000000004      7.1360000000000001
    81   1      8.7560000000000002                   1.615      7.2489999999999997
    82   1     -2.9100000000000001                   11.81      7.2489999999999997
    83   1      6.0549999999999997                   1.667      7.2069999999999999
    84   1                   0.111                  11.654      7.2169999999999996
    85   1      2.9159999999999999      1.7070000000000001      7.3150000000000004
    86   1      2.9289999999999998                  11.699      7.4500000000000002
    87   1   -0.050999999999999997      1.7529999999999999      7.2080000000000002
    88   1     -5.8319999999999999      11.757999999999999      7.2770000000000001
    89   1                   1.609      4.0800000000000001      7.1740000000000004
    90   1      4.3019999999999996      9.1229999999999993      7.0999999999999996
    91   1     0.10299999999999999      6.6900000000000004      7.2830000000000004
    92   1      1.4119999999999999      9.1639999999999997      7.3550000000000004
    93   1      4.4089999999999998      4.1849999999999996      7.1970000000000001
    94   1     -2.8119999999999998      6.8170000000000002                   7.306
    95   1                  10.224      4.4050000000000002      7.1890000000000001
    96   1     -1.3879999999999999      9.1579999999999995                   7.319
    97   1      7.3150000000000004      4.2290000000000001      7.3540000000000001
    98   1      8.8580000000000005      6.8099999999999996      7.3780000000000001
    99   1      5.8979999999999997      6.7880000000000003      7.1109999999999998
   100   1     -4.3659999999999997      9.3629999999999995      7.2080000000000002
   101   1     -2.9199999999999999      5.0519999999999996      9.5570000000000004
   102   1   -0.032000000000000001      9.8970000000000002      9.7750000000000004
   103   1                   1.397                   2.431      9.6600000000000001
   104   1      5.7800000000000002      5.0110000000000001      9.5960000000000001
   105   1                    2.79      9.9749999999999996      9.7100000000000009
   106   1    0.052999999999999999   -0.066000000000000003      9.5459999999999994
   107   1     0.13700000000000001      4.9349999999999996      9.5129999999999999
   108   1      2.8959999999999999      4.9139999999999997      9.7279999999999998
   109   1      2.9100000000000001    0.087999999999999995      9.4120000000000008
   110   1      5.9379999999999997    -0.11700000000000001      9.5530000000000008
   111   1      10.106999999999999      2.5489999999999999      9.6489999999999991
   112   1      8.8089999999999993      4.9279999999999999      9.6720000000000006
   113   1                   1.448      7.4059999999999997      9.6790000000000003
   114   1      8.7289999999999992                  -0.121      9.7539999999999996
   115   1                  -5.798      10.063000000000001      9.9039999999999999
   116   1     -4.2990000000000004      7.5890000000000004      9.6229999999999993
   117   1      7.2759999999999998      2.5390000000000001      9.7349999999999994
   118   1      11.569000000000001   -0.071999999999999995      9.6579999999999995
   119   1      7.0650000000000004      7.4569999999999999      9.6859999999999999
   120   1     -1.3600000000000001                   7.444      9.6690000000000005
   121   1     -1.4910000000000001                   2.544      9.5099999999999998
   122   1      4.2270000000000003      7.5090000000000003      9.6319999999999997
   123   1      4.4059999999999997      2.4169999999999998      9.7520000000000007
   124   1                  -2.843      9.9559999999999995      9.8200000000000003
   125   1      5.6680000000000001      10.013999999999999      9.5660000000000007
   126   4      6.8339999999999996      2.7570000000000001                  16.058
   127   3      6.4039999999999999      2.9460000000000002      16.925999999999998
   128   3      6.1109999999999998                   2.613                  15.387
   129   4                  11.746      14.547000000000001      27.207000000000001
   130   3      12.662000000000001                  14.218      27.411000000000001
   131   3      11.587999999999999                  15.477                  27.506
   132   4      5.9089999999999998      6.4989999999999997      17.027999999999999
   133   3      5.5190000000000001      7.4009999999999998      16.745999999999999
   134   3      5.9009999999999998      6.3879999999999999      17.995999999999999
   135   4      6.9489999999999998      2.5609999999999999      12.303000000000001
   136   3      6.5540000000000003                   1.673                  12.554
   137   3      7.7789999999999999                   2.569                  12.863
   138   4                  11.276      12.840999999999999      16.326000000000001
   139   3      12.170999999999999                  12.474      16.428000000000001
   140   3                  10.532                  12.132      16.489999999999998
   141   4     0.53500000000000003      9.0660000000000007      28.670999999999999
   142   3     0.77300000000000002      8.1509999999999998                  28.936
   143   3    -0.28299999999999997      9.2390000000000008                  29.125
   144   4                  10.484      8.0429999999999993      25.850999999999999
   145   3      10.771000000000001                   8.141      26.792000000000002
   146   3                  10.978      7.5149999999999997      25.146000000000001
   147   4      11.773999999999999      6.4359999999999999      24.254999999999999
   148   3                  12.288      6.8550000000000004      23.527999999999999
   149   3                  12.416                   6.181      24.946999999999999
   150   4      4.1929999999999996                   0.125      22.829000000000001
   151   3                   5.133    0.049000000000000002                  22.544
   152   3                   4.101                  -0.496      23.617999999999999
   153   4                   5.165     -2.0539999999999998      28.731999999999999
   154   3      5.3710000000000004                  -1.762                  27.831
   155   3      4.4900000000000002     -1.3520000000000001                  29.064
   156   4     0.44600000000000001      5.4660000000000002      19.838999999999999
   157   3     0.71699999999999997      4.9050000000000002      19.091000000000001
   158   3     0.66900000000000004      4.8179999999999996                   20.57
   159   4      8.1669999999999998      7.0170000000000003      26.867999999999999
   160   3      9.0079999999999991      7.2089999999999996                  26.433
   161   3      8.0250000000000004      7.8440000000000003      27.315000000000001
   162   4      3.6059999999999999      1.9059999999999999      18.379999999999999
   163   3      3.7749999999999999      1.1299999999999999      17.798999999999999
   164   3      3.2000000000000002      1.5669999999999999                  19.189
   165   4      2.6480000000000001     0.55500000000000005      20.527999999999999
   166   3      1.7809999999999999     0.90100000000000002      20.856000000000002
   167   3      3.1920000000000002     0.66000000000000003                  21.349
   168   4      6.6500000000000004      4.1210000000000004      28.806999999999999
   169   3      6.2869999999999999      4.5389999999999997      28.007999999999999
   170   3      7.5819999999999999      4.3879999999999999      28.844000000000001
   171   4      6.5730000000000004      8.2550000000000008                  13.846
   172   3      5.6239999999999997      8.0399999999999991                  14.065
   173   3      6.9829999999999997      7.3280000000000003                  13.792
   174   4                   9.468      7.6849999999999996                  17.346
   175   3      9.1210000000000004                   7.673      18.286000000000001
   176   3      10.451000000000001      7.5890000000000004      17.324999999999999
   177   4     0.11799999999999999                   0.439      17.036999999999999
   178   3     0.88700000000000001    -0.17499999999999999      16.972999999999999
   179   3    -0.55500000000000005                   0.012                  16.427
   180   4    -0.64100000000000001      8.5749999999999993      26.338000000000001
   181   3                  -1.129      9.3879999999999999      26.263000000000002
   182   3    -0.13900000000000001      8.6699999999999999      27.213000000000001
   183   4                  13.115                   2.363      25.234000000000002
   184   3      13.962999999999999      2.7639999999999998      25.643000000000001
   185   3      13.358000000000001                   1.468      24.797999999999998
   186   4      6.4880000000000004    -0.51700000000000002                  17.558
   187   3      6.7199999999999998                   0.127      18.257999999999999
   188   3      7.3529999999999998    -0.66100000000000003                  17.038
   189   4      2.4510000000000001      8.2639999999999993                  16.863
   190   3      2.2080000000000002      8.1690000000000005      17.815000000000001
   191   3      2.7240000000000002                   7.359      16.481000000000002
   192   4      15.188000000000001      2.6480000000000001                  15.782
   193   3      15.393000000000001      2.5379999999999998      14.816000000000001
   194   3                  14.888      1.6799999999999999      16.172999999999998
   195   4                  12.792                  10.026      19.045999999999999
   196   3      13.300000000000001      10.640000000000001      18.420999999999999
   197   3                  13.365      9.7889999999999997                  19.794
   198   4                   11.25                  16.456      28.882000000000001
   199   3                  12.138      16.396000000000001      29.370000000000001
   200   3                  10.942      17.385000000000002                  29.134
   201   4      5.5940000000000003      11.300000000000001                  28.102
   202   3      5.4059999999999997                  10.872      27.274000000000001
   203   3      5.1310000000000002      12.183999999999999      27.908999999999999
   204   4                  10.539    -0.10100000000000001      16.728999999999999
   205   3      10.407999999999999    -0.18099999999999999      17.748999999999999
   206   3                  10.129     0.80700000000000005      16.437999999999999
   207   4                  10.849                   -0.62      19.515000000000001
   208   3      10.513999999999999    -0.56699999999999995                  20.488
   209   3      11.593999999999999    0.021000000000000001      19.478999999999999
   210   4      18.829999999999998      7.3079999999999998      26.338999999999999
   211   3                  19.163      8.2460000000000004                  26.294
   212   3      18.286000000000001                   7.165      25.524000000000001
   213   4      8.2609999999999992                  12.179                  28.311
   214   3      7.2750000000000004      12.122999999999999      28.359000000000002
   215   3      8.4299999999999997                  12.256      27.353999999999999
   216   4      12.441000000000001                  -0.372      13.146000000000001
   217   3                  11.429    -0.32600000000000001      13.037000000000001
   218   3                  12.581    -0.65600000000000003                  14.052
   219   4     -2.2450000000000001      5.7759999999999998      19.609000000000002
   220   3                  -2.875      5.8529999999999998      20.364000000000001
   221   3     -1.3540000000000001                   5.633                  19.994
   222   4     -3.9260000000000002      2.3479999999999999      22.800000000000001
   223   3     -4.6639999999999997      2.6920000000000002                  23.363
   224   3     -3.1259999999999999                   2.996      22.981999999999999
   225   4      14.826000000000001                  11.179                  13.551
   226   3      14.039999999999999                  11.754      13.566000000000001
   227   3      15.127000000000001      11.146000000000001                  14.516
   228   4                   2.605                  11.052      25.501000000000001
   229   3      2.3730000000000002                  10.137                  25.247
   230   3                   2.673                  11.141                  26.465
   231   4      10.930999999999999      8.2010000000000005                   28.59
   232   3      10.109999999999999                   8.609                  28.959
   233   3      11.670999999999999      8.9589999999999996      28.713999999999999
   234   4                   1.258      14.795999999999999      24.632000000000001
   235   3     0.48599999999999999      15.324999999999999      24.388999999999999
   236   3                   1.419      14.999000000000001      25.614000000000001
   237   4      14.787000000000001      9.2780000000000005      21.597000000000001
   238   3                  15.121      9.2750000000000004                  22.558
   239   3      15.417999999999999      8.8320000000000007      20.922000000000001
   240   4      5.3710000000000004      4.7439999999999998      12.042999999999999
   241   3      5.8739999999999997      3.9300000000000002                  12.234
   242   3      4.4809999999999999      4.5970000000000004                  12.432
   243   4      13.345000000000001                   8.923                  13.869
   244   3                  13.766      9.7449999999999992                  13.535
   245   3                  13.929      8.6340000000000003                  14.625
   246   4      7.5270000000000001                  10.663                  12.301
   247   3      7.3479999999999999      9.7929999999999993                  12.661
   248   3      6.7699999999999996                  11.208                  12.561
   249   4     0.25700000000000001                   1.294      21.463000000000001
   250   3     0.28599999999999998      2.2469999999999999                  21.587
   251   3    -0.41299999999999998                   1.224      20.701000000000001
   252   4      3.0369999999999999      4.2270000000000003                  13.766
   253   3                   3.206      4.7649999999999997      14.624000000000001
   254   3                   2.226      4.5780000000000003      13.289999999999999
   255   4      6.0090000000000003      3.1339999999999999      18.812000000000001
   256   3      5.0999999999999996                   2.665                  18.715
   257   3      6.5469999999999997      2.4780000000000002      19.318999999999999
   258   4      7.6689999999999996                    9.75      21.178000000000001
   259   3      6.7720000000000002      9.9350000000000005      20.763999999999999
   260   3      8.3580000000000005                  10.086                  20.619
   261   4      9.4130000000000003                   2.121      15.874000000000001
   262   3      9.8810000000000002      3.0019999999999998                  16.055
   263   3      8.5350000000000001      2.2919999999999998                  16.262
   264   4      7.0519999999999996    -0.40600000000000003      21.890999999999998
   265   3      7.1559999999999997                  -1.284                  21.378
   266   3                   7.226    -0.60699999999999998      22.920999999999999
   267   4      4.7999999999999998                  14.151      27.603000000000002
   268   3      5.1779999999999999      14.720000000000001      28.303000000000001
   269   3      5.0860000000000003                  14.286      26.658000000000001
   270   4      8.1799999999999997      7.0730000000000004      19.731000000000002
   271   3      8.8290000000000006      6.5499999999999998      20.306999999999999
   272   3      8.0670000000000002      8.0109999999999992      20.091000000000001
   273   4      2.1059999999999999      4.0960000000000001      17.736999999999998
   274   3                   2.581      3.2850000000000001      18.114999999999998
   275   3                   1.569      3.7440000000000002      16.992000000000001
   276   4      5.9470000000000001                   13.75      19.382999999999999
   277   3      5.4909999999999997      14.593999999999999      19.010000000000002
   278   3      6.5659999999999998                  13.347                  18.727
   279   4      8.7270000000000003      15.276999999999999      28.489999999999998
   280   3      8.9779999999999998                  14.343      28.385000000000002
   281   3      9.5760000000000005      15.659000000000001      28.858000000000001
   282   4                     7.5    -0.32700000000000001                  24.541
   283   3      8.4550000000000001                  -0.497      24.827000000000002
   284   3      7.5369999999999999     0.70499999999999996      24.388999999999999
   285   4                  10.129     -2.0270000000000001                  28.105
   286   3      10.997999999999999     -1.8680000000000001      28.486000000000001
   287   3      9.6500000000000004     -2.4910000000000001                  28.843
   288   4      8.8469999999999995      5.8899999999999997                   23.82
   289   3      8.1530000000000005      5.2220000000000004                  23.977
   290   3      9.6210000000000004                   5.782      24.370000000000001
   291   4      8.1389999999999993      9.3879999999999999      28.585999999999999
   292   3      8.4390000000000001      10.337999999999999                  28.497
   293   3      7.3600000000000003                   9.516                  29.119
   294   4                   3.214                   6.774                  28.988
   295   3      3.5870000000000002      7.6029999999999998      29.367000000000001
   296   3      3.5099999999999998      6.9470000000000001                  28.029
   297   4      7.2400000000000002      1.1819999999999999      28.414999999999999
   298   3      6.9950000000000001      2.1190000000000002                  28.814
   299   3      6.9569999999999999     0.46899999999999997      29.047999999999998
   300   4      9.4499999999999993                    2.54      27.140000000000001
   301   3      10.377000000000001      2.2000000000000002                  27.442
   302   3      8.8559999999999999                   1.883      27.585000000000001
   303   4                   7.875      5.4320000000000004                  15.846
   304   3                   7.165      5.9349999999999996      16.315999999999999
   305   3                   7.726      4.4400000000000004      16.010999999999999
   306   4                  11.254      9.6720000000000006                  22.288
   307   3      10.766999999999999      9.9019999999999992      23.082000000000001
   308   3                  10.814      10.034000000000001                  21.433
   309   4      8.8070000000000004                  13.766                  12.715
   310   3      7.8920000000000003      13.986000000000001                  12.416
   311   3      9.3829999999999991      14.574999999999999      12.869999999999999
   312   4      9.9429999999999996      5.6459999999999999                  21.154
   313   3      9.6850000000000005      4.7359999999999998      21.021000000000001
   314   3                   9.673      5.7990000000000004                  22.099
   315   4      4.2149999999999999      7.6699999999999999      20.585000000000001
   316   3      4.3099999999999996      7.7789999999999999                  21.561
   317   3      4.6890000000000001      6.8390000000000004                  20.256
   318   4     0.48899999999999999      6.3319999999999999      29.266999999999999
   319   3      1.1599999999999999      5.6849999999999996      29.158999999999999
   320   3    -0.42899999999999999                   5.992      28.920000000000002
   321   4      12.893000000000001     -1.1279999999999999      15.646000000000001
   322   3                  12.891                  -2.125                  16.006
   323   3                  12.055    -0.68400000000000005                  15.894
   324   4      12.848000000000001      7.3860000000000001      22.039999999999999
   325   3      13.638999999999999      7.8739999999999997                  21.753
   326   3                  12.247      8.2189999999999994      22.204999999999998
   327   4      5.9009999999999998      5.6449999999999996      19.829999999999998
   328   3                   5.899      4.7439999999999998      19.449000000000002
   329   3      6.8099999999999996      6.0629999999999997      19.684000000000001
   330   4      6.5819999999999999      12.646000000000001      23.876999999999999
   331   3      5.7770000000000001                  12.044      23.731000000000002
   332   3      6.7809999999999997                   12.99      23.001000000000001
   333   4      4.3799999999999999                  11.042      23.513999999999999
   334   3      3.7120000000000002                  11.605      23.045000000000002
   335   3      3.9289999999999998      10.970000000000001      24.414000000000001
   336   4      12.553000000000001      4.0090000000000003                  23.302
   337   3                  12.757      3.4209999999999998      24.082999999999998
   338   3                  12.134      4.8520000000000003      23.696999999999999
   339   4      2.5699999999999998                  12.388      12.385999999999999
   340   3      2.4239999999999999                  13.388                    12.6
   341   3      1.9419999999999999                  11.827                  12.863
   342   4                  13.129                  11.305                  26.186
   343   3      13.728999999999999      11.667999999999999      25.501000000000001
   344   3                  12.241                  11.199      25.620000000000001
   345   4      3.3479999999999999                   1.911                  24.567
   346   3      4.0119999999999996      2.0939999999999999                  25.302
   347   3      3.8109999999999999                   1.621      23.760999999999999
   348   4      7.8490000000000002                  16.436      26.065999999999999
   349   3      8.2949999999999999      16.207000000000001      26.911999999999999
   350   3      7.1420000000000003      17.138000000000002                  26.253
   351   4                  15.651      8.9410000000000007      24.300999999999998
   352   3                  16.433      8.2889999999999997      24.117999999999999
   353   3                  15.246      8.7070000000000007      25.167000000000002
   354   4      9.6319999999999997      3.0840000000000001      20.460999999999999
   355   3                  10.388      3.2709999999999999      19.824999999999999
   356   3                  10.045      2.8660000000000001      21.327000000000002
   357   4      7.5529999999999999      8.1500000000000004                  23.276
   358   3                   7.968      8.7249999999999996      22.562000000000001
   359   3      8.2070000000000007      7.4580000000000002      23.643000000000001
   360   4                   13.34      6.6840000000000002      12.398999999999999
   361   3      12.375999999999999      6.5789999999999997                  12.696
   362   3                  13.673      7.4489999999999998                  12.916
   363   4                  13.122      4.7210000000000001      15.106999999999999
   364   3                  13.714      5.4699999999999998      15.441000000000001
   365   3                  13.583      3.9209999999999998                  15.385
   366   4      13.268000000000001      5.9189999999999996      26.239999999999998
   367   3                  12.544      5.8209999999999997      26.940000000000001
   368   3                  13.706      6.7839999999999998      26.420999999999999
   369   4      6.6559999999999997      4.1070000000000002      24.015000000000001
   370   3      5.9489999999999998      4.0519999999999996      23.326000000000001
   371   3      6.2160000000000002      4.5599999999999996      24.824999999999999
   372   4                  11.709                    3.48      18.667000000000002
   373   3      11.994999999999999      4.4269999999999996      18.952999999999999
   374   3                  11.157      3.7490000000000001                  17.895
   375   4      9.2579999999999991                   4.875      28.524000000000001
   376   3      9.2349999999999994                   4.141      27.873999999999999
   377   3      9.0839999999999996      5.6829999999999998      28.016999999999999
   378   4     -2.5760000000000001      5.6890000000000001      28.789999999999999
   379   3     -3.4790000000000001      5.1799999999999997                  28.631
   380   3                  -2.931      6.5449999999999999      29.074999999999999
   381   4      5.0640000000000001      9.0739999999999998      16.754000000000001
   382   3      4.0499999999999998      8.9960000000000004                  16.683
   383   3      5.1909999999999998      9.2609999999999992      17.792999999999999
   384   4      9.8559999999999999    -0.10299999999999999      22.053999999999998
   385   3      8.8650000000000002    -0.17699999999999999      21.986999999999998
   386   3                   10.07     0.89300000000000002                  22.122
   387   4      3.0179999999999998      7.0330000000000004      24.053000000000001
   388   3      2.7949999999999999      6.1029999999999998      23.861999999999998
   389   3      3.8380000000000001      7.4320000000000004                  23.625
   390   4      9.2959999999999994      11.250999999999999                  17.032
   391   3      9.5830000000000002                  10.849      17.943999999999999
   392   3      9.0399999999999991      10.516999999999999      16.434000000000001
   393   4                  10.512      11.532999999999999                  12.116
   394   3                  10.167      10.664999999999999      12.481999999999999
   395   3      9.8109999999999999                  12.134                  12.362
   396   4                  13.221      3.2770000000000001      29.219999999999999
   397   3      12.792999999999999      4.1470000000000002      29.359999999999999
   398   3                  14.157                   3.456      29.129999999999999
   399   4     0.76400000000000001      4.5910000000000002                  12.298
   400   3                   0.155      5.3570000000000002                  12.571
   401   3     0.23400000000000001      3.7599999999999998                  12.452
   402   4      2.0339999999999998      14.992000000000001                  13.311
   403   3      2.7829999999999999                  15.638                  13.115
   404   3      2.1720000000000002      14.680999999999999                  14.266
   405   4      4.9630000000000001      8.3610000000000007                  23.006
   406   3      5.8869999999999996      8.0549999999999997      23.187999999999999
   407   3      4.8959999999999999      9.3490000000000002                  23.131
   408   4                   -1.26      2.1800000000000002      12.250999999999999
   409   3     -1.5800000000000001                   1.351                  12.679
   410   3     -1.9350000000000001      2.8999999999999999      12.298999999999999
   411   4      2.9609999999999999     -1.8839999999999999                  19.634
   412   3      3.8849999999999998     -2.0579999999999998      19.466000000000001
   413   3      2.9460000000000002    -0.94999999999999996                  20.012
   414   4      7.7709999999999999                   1.181      19.658999999999999
   415   3                   7.375     0.93400000000000005                  20.552
   416   3                     8.5      1.9179999999999999      19.777000000000001
   417   4                   8.702      9.1080000000000005                  15.379
   418   3      7.9130000000000003      8.7970000000000006                  14.898
   419   3      8.7189999999999994      8.5139999999999993      16.123000000000001
   420   4      7.6870000000000003      5.8360000000000003      13.183999999999999
   421   3      7.7999999999999998      5.6420000000000003                  14.189
   422   3      6.8049999999999997      5.4889999999999999                  12.831
   423   4      3.4009999999999998     -1.8799999999999999      24.934999999999999
   424   3      3.3740000000000001     -2.8300000000000001      25.390999999999998
   425   3                   2.605     -1.3300000000000001      25.233000000000001
   426   4      10.837999999999999                   12.51      29.385000000000002
   427   3                  11.029                  13.064                  28.555
   428   3      9.8689999999999998                  12.413      29.428999999999998
   429   4                  12.363                   7.569      17.640999999999998
   430   3      12.606999999999999      8.4160000000000004      18.079000000000001
   431   3      12.406000000000001      6.8819999999999997      18.388999999999999
   432   4                  10.544      4.5289999999999999      16.350000000000001
   433   3      9.7669999999999995      5.1449999999999996      16.245000000000001
   434   3                  11.416      4.7930000000000001                  15.936
   435   4     0.44600000000000001      3.8069999999999999      21.928999999999998
   436   3    -0.47999999999999998                   4.173      22.190999999999999
   437   3                   1.022                   3.972                  22.715
   438   4      10.462999999999999      8.9789999999999992      13.228999999999999
   439   3                  11.339      8.9960000000000004      13.603999999999999
   440   3                   9.843      9.0069999999999997                  14.042
   441   4                   1.712                       8      19.542000000000002
   442   3      1.1859999999999999      7.1820000000000004      19.635000000000002
   443   3      2.5779999999999998      7.6959999999999997      19.917000000000002
   444   4      3.3069999999999999      5.7859999999999996      16.079999999999998
   445   3      4.2779999999999996      5.7930000000000001      16.361999999999998
   446   3                   2.738      5.1699999999999999      16.643000000000001
   447   4      5.6269999999999998   0.0060000000000000001                  13.173
   448   3      4.8360000000000003    -0.42599999999999999                   12.67
   449   3      5.1760000000000002                   0.752                  13.654
   450   4                   2.206      4.3250000000000002      24.065000000000001
   451   3                   1.655                   4.431      24.914000000000001
   452   3      2.7370000000000001      3.4420000000000002                  24.215
   453   4      5.3819999999999997      9.9499999999999993      19.422999999999998
   454   3      4.7080000000000002                  10.686                   19.48
   455   3      4.9980000000000002      9.1989999999999998      19.925999999999998
   456   4      4.6139999999999999      4.3259999999999996      22.239000000000001
   457   3      3.7090000000000001      4.6600000000000001                  22.448
   458   3      4.9649999999999999      4.9269999999999996      21.524999999999999
   459   4      6.1280000000000001      9.3469999999999995      26.062999999999999
   460   3                   6.452      8.8010000000000002      25.335999999999999
   461   3      6.7549999999999999      9.1880000000000006                  26.794
   462   4      4.4560000000000004      2.1349999999999998      14.486000000000001
   463   3                   3.758                   2.798      14.236000000000001
   464   3      4.0659999999999998      1.5149999999999999                   15.15
   465   4      6.0960000000000001      5.2190000000000003                  26.334
   466   3                   5.383      5.8780000000000001      26.466999999999999
   467   3      6.8620000000000001                   5.766      26.449999999999999
   468   4                   0.016      7.1950000000000003                   15.91
   469   3    -0.61699999999999999      7.5149999999999997      16.568000000000001
   470   3     0.91600000000000004      7.5499999999999998      16.097999999999999
   471   4      11.451000000000001                   4.117      12.917999999999999
   472   3                  10.898      4.9850000000000003      12.675000000000001
   473   3      12.039999999999999      4.4420000000000002      13.699999999999999
   474   4      1.5109999999999999                  -0.047      25.577000000000002
   475   3                   1.921     0.82599999999999996      25.452000000000002
   476   3     0.67000000000000004                  -0.027      25.004999999999999
   477   4      1.3959999999999999                  10.756      16.414999999999999
   478   3                   1.615      9.8249999999999993      16.527999999999999
   479   3                    2.27                   11.24      16.393999999999998
   480   4                  10.109      6.5490000000000004                  12.352
   481   3      9.1449999999999996      6.4249999999999998                  12.488
   482   3      10.236000000000001      7.5049999999999999                  12.669
   483   2                  -12.06      8.4700000000000006                  13.256
   484   4     -11.446999999999999      9.4830000000000005      13.329000000000001
