data.lmp 

720 	 atoms 
3  atom types
0.0                  17.375  xlo xhi
2.3278086092453796    17.375  ylo yhi
0.0      45.457999999999998  zlo zhi
    -8.6874999999999964                       0                       0  xy xz yz


Atoms 

     1   1                       0      1.6719999999999999                       0
     2   1      14.478999999999999      1.6719999999999999                       0
     3   1     -2.8959999999999999      11.702999999999999                       0
     4   1                  -1.448      4.1799999999999997                       0
     5   1      8.6880000000000006      6.6879999999999997                       0
     6   1      5.7919999999999998      6.6879999999999997                       0
     7   1                   1.448      4.1799999999999997                       0
     8   1      2.8959999999999999      6.6879999999999997                       0
     9   1      4.3440000000000003                  14.211                       0
    10   1      4.3440000000000003      4.1799999999999997                       0
    11   1                       0      6.6879999999999997                       0
    12   1                   1.448                  14.211                       0
    13   1                       0      11.702999999999999                       0
    14   1      2.8959999999999999      11.702999999999999                       0
    15   1      7.2400000000000002      4.1799999999999997                       0
    16   1     -2.8959999999999999      6.6879999999999997                       0
    17   1                  10.135      4.1799999999999997                       0
    18   1                  10.135      9.1959999999999997                       0
    19   1      5.7919999999999998      11.702999999999999                       0
    20   1     -4.3440000000000003      9.1959999999999997                       0
    21   1                  11.583      6.6879999999999997                       0
    22   1     -4.3440000000000003                  14.211                       0
    23   1      7.2400000000000002      9.1959999999999997                       0
    24   1      2.8959999999999999      1.6719999999999999                       0
    25   1      4.3440000000000003      9.1959999999999997                       0
    26   1      8.6880000000000006      11.702999999999999                       0
    27   1                   1.448      9.1959999999999997                       0
    28   1      5.7919999999999998      1.6719999999999999                       0
    29   1                  11.583      1.6719999999999999                       0
    30   1     -5.7919999999999998      11.702999999999999                       0
    31   1     -7.2400000000000002                  14.211                       0
    32   1      13.031000000000001      4.1799999999999997                       0
    33   1      8.6880000000000006      1.6719999999999999                       0
    34   1                  -1.448      9.1959999999999997                       0
    35   1      7.2400000000000002                  14.211                       0
    36   1                  -1.448                  14.211                       0
    37   1     -2.8959999999999999                  10.032      2.3639999999999999
    38   1      7.2400000000000002                   7.524      2.3639999999999999
    39   1     -5.7919999999999998                  10.032      2.3639999999999999
    40   1                       0                  10.032      2.3639999999999999
    41   1                   1.448                  12.539      2.3639999999999999
    42   1                  10.135                   7.524      2.3639999999999999
    43   1     -2.8959999999999999                   5.016      2.3639999999999999
    44   1      4.3440000000000003                   7.524      2.3639999999999999
    45   1                   1.448                   7.524      2.3639999999999999
    46   1      13.031000000000001                   2.508      2.3639999999999999
    47   1                  -1.448                  12.539      2.3639999999999999
    48   1                       0                   5.016      2.3639999999999999
    49   1                  -1.448                   7.524      2.3639999999999999
    50   1      2.8959999999999999                   5.016      2.3639999999999999
    51   1      8.6880000000000006                   5.016      2.3639999999999999
    52   1      5.7919999999999998                   5.016      2.3639999999999999
    53   1                  11.583                   5.016      2.3639999999999999
    54   1     -4.3440000000000003                   7.524      2.3639999999999999
    55   1     -4.3440000000000003                  12.539      2.3639999999999999
    56   1                   1.448                   2.508      2.3639999999999999
    57   1      5.7919999999999998                       0      2.3639999999999999
    58   1      7.2400000000000002                  12.539      2.3639999999999999
    59   1      5.7919999999999998                  10.032      2.3639999999999999
    60   1                  -1.448                   2.508      2.3639999999999999
    61   1      2.8959999999999999                       0      2.3639999999999999
    62   1      8.6880000000000006                       0      2.3639999999999999
    63   1                  11.583                       0      2.3639999999999999
    64   1      4.3440000000000003                   2.508      2.3639999999999999
    65   1      8.6880000000000006                  10.032      2.3639999999999999
    66   1      7.2400000000000002                   2.508      2.3639999999999999
    67   1     -7.2400000000000002                  12.539      2.3639999999999999
    68   1                       0                       0      2.3639999999999999
    69   1                  10.135                   2.508      2.3639999999999999
    70   1      14.478999999999999                       0      2.3639999999999999
    71   1      2.8959999999999999                  10.032      2.3639999999999999
    72   1      4.3440000000000003                  12.539      2.3639999999999999
    73   1                  -2.907      8.2870000000000008      4.6459999999999999
    74   1                  13.023     0.68700000000000006      4.5999999999999996
    75   1      7.2729999999999997                  10.933      4.7279999999999998
    76   1                  10.196     0.78600000000000003      4.7030000000000003
    77   1      1.6739999999999999                   10.77      4.7530000000000001
    78   1      7.2530000000000001     0.79700000000000004      4.7889999999999997
    79   1      4.4850000000000003     0.67600000000000005      4.7110000000000003
    80   1                   2.855      8.3149999999999995      4.6539999999999999
    81   1                  11.596      8.4130000000000003      4.7779999999999996
    82   1      8.7899999999999991                  13.417      4.8739999999999997
    83   1      5.6849999999999996      8.4350000000000005      4.6859999999999999
    84   1     -2.9049999999999998                  13.375      4.7409999999999997
    85   1                   1.605     0.79800000000000004      4.7610000000000001
    86   1      8.6189999999999998      8.3399999999999999      4.6900000000000004
    87   1    0.091999999999999998      8.3019999999999996      4.7279999999999998
    88   1     -4.3460000000000001                  10.859      4.7149999999999999
    89   1                  15.984     0.76000000000000001                   4.734
    90   1                  13.097      5.8330000000000002      4.8209999999999997
    91   1                  11.629      3.4420000000000002                   4.726
    92   1     -5.7699999999999996                  13.323      4.7869999999999999
    93   1      8.6229999999999993      3.3530000000000002      4.9379999999999997
    94   1     -1.4590000000000001      5.8849999999999998                   4.694
    95   1      5.7510000000000003                   3.294      4.7409999999999997
    96   1      4.3799999999999999      10.946999999999999      4.7969999999999997
    97   1                   1.405      5.7539999999999996      4.7229999999999999
    98   1      4.3079999999999998      5.8860000000000001      4.7229999999999999
    99   1     -1.3979999999999999                  10.791      4.8419999999999996
   100   1      2.9399999999999999      3.3559999999999999      4.6699999999999999
   101   1      7.2889999999999997                   5.851      4.7439999999999998
   102   1                  -0.186      3.3570000000000002                   4.718
   103   1   0.0089999999999999993      13.263999999999999      4.6180000000000003
   104   1      5.7969999999999997      13.385999999999999      4.7439999999999998
   105   1      10.122999999999999      5.8659999999999997      4.7519999999999998
   106   1      2.9239999999999999                  13.343      4.6849999999999996
   107   1                  10.122                  10.837                   4.657
   108   1                  14.558      3.2850000000000001      4.7809999999999997
   109   1      2.9980000000000002                  11.616                   7.141
   110   1     -5.7969999999999997                  11.609      7.0860000000000003
   111   1     -2.5329999999999999                  11.597      7.4130000000000003
   112   1                  10.205      9.0410000000000004      7.1950000000000003
   113   1                  -6.899      14.045999999999999      7.2430000000000003
   114   1      5.9880000000000004      11.797000000000001                   7.327
   115   1                   0.216      11.592000000000001      7.1749999999999998
   116   1                  -1.244                  14.144      7.0019999999999998
   117   1      4.3730000000000002      9.1750000000000007      7.0650000000000004
   118   1                   0.055                   1.554      7.2690000000000001
   119   1      2.9089999999999998      1.6759999999999999      7.1829999999999998
   120   1                   5.718                   1.635      7.2430000000000003
   121   1      8.5980000000000008      1.5720000000000001      7.0469999999999997
   122   1                  11.631      1.5669999999999999      7.0949999999999998
   123   1                   4.415      14.249000000000001      7.2569999999999997
   124   1                  14.565      1.4410000000000001      7.0700000000000003
   125   1     -1.4850000000000001      3.8730000000000002      7.3070000000000004
   126   1      1.4730000000000001      4.0739999999999998      7.0570000000000004
   127   1                   4.351      4.2069999999999999                    7.04
   128   1      7.0789999999999997      4.2290000000000001      7.1139999999999999
   129   1      1.6000000000000001                  14.074      6.9930000000000003
   130   1                   7.149      9.1899999999999995      7.1970000000000001
   131   1                   13.02      4.1040000000000001      7.3529999999999998
   132   1                  10.122      4.1109999999999998      7.1440000000000001
   133   1   -0.060999999999999999      6.4470000000000001      7.1459999999999999
   134   1     -4.2750000000000004      14.045999999999999      7.1950000000000003
   135   1      1.5209999999999999      9.0190000000000001      7.1989999999999998
   136   1     -1.3879999999999999      8.9499999999999993      7.1260000000000003
   137   1     -4.1500000000000004      9.0890000000000004      7.1760000000000002
   138   1     -2.7559999999999998      6.4960000000000004      7.2969999999999997
   139   1      11.683999999999999      6.6420000000000003      7.1970000000000001
   140   1      7.3529999999999998                  14.151      7.2460000000000004
   141   1                   8.593      6.6449999999999996      7.1500000000000004
   142   1      5.7729999999999997      6.7919999999999998      7.0670000000000002
   143   1      2.9769999999999999      6.7089999999999996      6.9160000000000004
   144   1      8.7799999999999994                  11.599                   7.008
   145   1      4.7030000000000003                  12.387      9.6660000000000004
   146   1      1.6830000000000001      12.550000000000001      9.5969999999999995
   147   1     -4.3959999999999999      12.622999999999999      9.5969999999999995
   148   1                  -1.349      12.654999999999999      9.7170000000000005
   149   1     -7.2649999999999997                  12.401      9.4870000000000001
   150   1                  11.446      5.1070000000000002      9.4700000000000006
   151   1      5.8680000000000003      9.8930000000000007      9.5519999999999996
   152   1    0.096000000000000002                  -0.125      9.5069999999999997
   153   1      3.0579999999999998   -0.071999999999999995      9.4120000000000008
   154   1      6.0970000000000004                  -0.154      9.3659999999999997
   155   1      8.8569999999999993    -0.10199999999999999      9.4939999999999998
   156   1      11.808999999999999   -0.069000000000000006      9.5640000000000001
   157   1                  14.539                  -0.192      9.7509999999999994
   158   1                  -1.383      2.3100000000000001      9.5299999999999994
   159   1                   1.496      2.4180000000000001      9.5960000000000001
   160   1      4.5149999999999997      2.4769999999999999      9.6999999999999993
   161   1      7.3559999999999999                   2.548      9.3620000000000001
   162   1                  10.196                   2.395      9.2669999999999995
   163   1                  13.042      2.3940000000000001      9.6010000000000009
   164   1     -2.8679999999999999      4.9009999999999998      9.7230000000000008
   165   1     0.11799999999999999      4.7439999999999998      9.6920000000000002
   166   1                    2.75      5.0490000000000004      9.3499999999999996
   167   1                   5.758                   4.931      9.3049999999999997
   168   1      8.7249999999999996      4.9290000000000003      9.3300000000000001
   169   1                  -4.282      7.4800000000000004      9.4190000000000005
   170   1     -1.3340000000000001      7.2779999999999996      9.5589999999999993
   171   1                   1.413                   7.391                   9.516
   172   1      4.3109999999999999      7.4569999999999999      9.2919999999999998
   173   1      7.2089999999999996      7.5190000000000001      9.3989999999999991
   174   1                  10.096      7.4649999999999999      9.4610000000000003
   175   1     -5.6779999999999999      10.045999999999999      9.3740000000000006
   176   1     -2.6909999999999998      9.9109999999999996      9.5950000000000006
   177   1                   0.108      9.9309999999999992                   9.484
   178   1                   3.028      10.143000000000001                    9.25
   179   1      8.8460000000000001      9.9369999999999994      9.5129999999999999
   180   1      7.4219999999999997      12.529999999999999      9.6069999999999993
   181   3      16.187999999999999      7.6689999999999996      25.550999999999998
   182   2                   15.49      8.1609999999999996                  25.006
   183   2      16.861999999999998      7.2690000000000001      24.989000000000001
   184   3                  14.041      4.2670000000000003      18.600000000000001
   185   2      13.808999999999999      5.0529999999999999      19.120999999999999
   186   2      14.576000000000001      3.7410000000000001      19.178000000000001
   187   3      10.095000000000001      14.303000000000001      15.856999999999999
   188   2                  10.238                  14.003      16.835999999999999
   189   2                  10.933      13.984999999999999                  15.448
   190   3    -0.95299999999999996      16.199000000000002      28.786999999999999
   191   2     -1.4059999999999999      16.376000000000001      29.655000000000001
   192   2                   0.024      16.428000000000001      28.885000000000002
   193   3      5.8540000000000001      3.6139999999999999      16.466000000000001
   194   2      5.1420000000000003      4.3520000000000003      16.234999999999999
   195   2      5.2640000000000002      2.8740000000000001      16.704999999999998
   196   3      16.466000000000001                   1.875                  12.974
   197   2                   15.66                   1.895                  12.423
   198   2      16.077000000000002      2.0779999999999998                  13.926
   199   3                  10.022                   5.391      25.376000000000001
   200   2      9.2810000000000006      5.7800000000000002      25.922999999999998
   201   2      10.401999999999999      4.6790000000000003      25.888999999999999
   202   3                  14.224                  13.455      18.661000000000001
   203   2                  15.122      12.973000000000001      18.879999999999999
   204   2      13.848000000000001      13.608000000000001                  19.602
   205   3                  10.093      4.0709999999999997      18.457999999999998
   206   2      9.0730000000000004      4.1920000000000002                  18.625
   207   2                  10.474      5.0300000000000002                   18.48
   208   3      14.723000000000001      6.1619999999999999      16.539999999999999
   209   2                  15.122      6.8460000000000001                  17.073
   210   2      14.505000000000001      5.4619999999999997                  17.218
   211   3      6.5869999999999997      13.701000000000001      24.422000000000001
   212   2      6.5270000000000001                  14.359                  25.157
   213   2      5.7690000000000001                  13.887      23.859000000000002
   214   3                  15.167      5.2510000000000003      26.835999999999999
   215   2                  15.333      6.0300000000000002                   26.23
   216   2      14.683999999999999      5.4169999999999998      27.670000000000002
   217   3     0.97499999999999998      13.949999999999999      15.635999999999999
   218   2      1.4399999999999999      13.537000000000001                  14.839
   219   2      1.1519999999999999                   13.41      16.408000000000001
   220   3                   3.016      9.3460000000000001      12.077999999999999
   221   2      3.4399999999999999      9.5239999999999991                  13.007
   222   2      2.3220000000000001                  10.102      11.938000000000001
   223   3                   9.016      13.337999999999999      22.949999999999999
   224   2      9.7149999999999999                  14.013      23.030000000000001
   225   2      8.2249999999999996      13.664999999999999      23.417999999999999
   226   3      6.4160000000000004                   4.468      20.928000000000001
   227   2      7.0380000000000003      4.4299999999999997                  21.718
   228   2      5.6429999999999998      5.0880000000000001      21.059000000000001
   229   3                  10.112      9.6210000000000004      27.693000000000001
   230   2      10.976000000000001      9.2560000000000002      27.591000000000001
   231   2      9.6069999999999993      9.1649999999999991      28.385999999999999
   232   3                   1.216      7.8319999999999999      18.236000000000001
   233   2     0.52900000000000003      8.3879999999999999                  17.779
   234   2      2.1099999999999999      8.2669999999999995                  18.294
   235   3      17.228000000000002      13.000999999999999                  21.619
   236   2      17.042000000000002                  12.695      20.693999999999999
   237   2                  17.561      13.957000000000001                  21.616
   238   3      18.170000000000002                  12.487      25.422000000000001
   239   2      18.475999999999999                  11.897                  26.218
   240   2                  17.279                  12.804                  25.709
   241   3                   1.157      3.9350000000000001      25.367000000000001
   242   2                   2.036      3.9510000000000001                  24.811
   243   2     0.96599999999999997                   2.956      25.271000000000001
   244   3                  14.789     0.39900000000000002      26.364999999999998
   245   2                  14.718      1.3520000000000001                  26.166
   246   2                   15.65     0.22500000000000001      26.795999999999999
   247   3      5.4800000000000004      5.1539999999999999      12.055999999999999
   248   2      5.4800000000000004      4.3659999999999997      12.680999999999999
   249   2      5.9749999999999996      5.9329999999999998      12.433999999999999
   250   3                  10.901      4.5279999999999996                  15.285
   251   2      11.329000000000001      4.2809999999999997      16.114000000000001
   252   2      10.412000000000001                   5.375      15.438000000000001
   253   3      7.4950000000000001      2.6320000000000001      14.571999999999999
   254   2      6.9109999999999996                   3.097      15.207000000000001
   255   2      8.1679999999999993                   2.161                  15.125
   256   3      1.6240000000000001    -0.30599999999999999      20.260000000000002
   257   2                   1.889                  -1.048      19.704999999999998
   258   2     0.72999999999999998    -0.54800000000000004      20.655000000000001
   259   3                   1.351      10.154999999999999                  15.378
   260   2      1.6699999999999999      9.9749999999999996      16.295999999999999
   261   2     0.57499999999999996      10.787000000000001      15.438000000000001
   262   3      9.6859999999999999     0.35999999999999999      21.199000000000002
   263   2                  10.587     0.27100000000000002                  20.849
   264   2      9.7840000000000007                   1.383      21.379000000000001
   265   3      1.8620000000000001      10.920999999999999      27.568999999999999
   266   2                   1.054                  10.988      28.155999999999999
   267   2                   2.109      9.9939999999999998                  27.404
   268   3      5.3239999999999998     0.22900000000000001                  16.491
   269   2      5.1360000000000001    -0.35599999999999998      17.271000000000001
   270   2      4.6859999999999999     0.94899999999999995      16.507000000000001
   271   3      9.5579999999999998      7.6040000000000001      22.033999999999999
   272   2      8.9269999999999996                   7.444      22.792999999999999
   273   2                  10.288      8.2460000000000004                  22.355
   274   3      5.6900000000000004      12.558999999999999      20.146999999999998
   275   2      6.5490000000000004      12.196999999999999      20.396000000000001
   276   2      4.9960000000000004                   12.15      20.739999999999998
   277   3      2.9249999999999998      4.9820000000000002                  12.013
   278   2      3.7799999999999998                   5.476      12.141999999999999
   279   2                   2.242      5.6929999999999996      12.016999999999999
   280   3                  14.769      9.8320000000000007      19.513000000000002
   281   2                  15.074      9.4359999999999999      20.338000000000001
   282   2                   13.91                  10.238      19.824000000000002
   283   3                  11.407      6.9130000000000003                  13.318
   284   2                  11.551      6.0010000000000003                  13.084
   285   2                  11.699      6.8390000000000004      14.279999999999999
   286   3      8.6189999999999998      3.9359999999999999      23.132000000000001
   287   2      8.8970000000000002      4.6239999999999997      23.765999999999998
   288   2      9.4179999999999993                   3.879      22.632000000000001
   289   3      14.843999999999999                  10.747                   26.73
   290   2      14.281000000000001      9.9350000000000005                  26.965
   291   2                   15.51                  10.913                  27.436
   292   3      7.1470000000000002    -0.93200000000000005                      26
   293   2      7.7350000000000003                  -0.126      25.986000000000001
   294   2      6.2439999999999998    -0.56399999999999995                  25.686
   295   3      6.0330000000000004      5.3849999999999998      28.501000000000001
   296   2      5.2720000000000002                   5.375                  27.779
   297   2      6.3689999999999998      4.4740000000000002      28.501000000000001
   298   3                  13.177      6.5800000000000001      19.829000000000001
   299   2                  12.834      6.2050000000000001                   20.68
   300   2      13.907999999999999      7.1500000000000004      20.135000000000002
   301   3                   2.367      14.587999999999999      25.420000000000002
   302   2      2.7639999999999998      14.436999999999999      26.364000000000001
   303   2                   1.796                  13.773                  25.445
   304   3                  12.417      11.021000000000001      20.463000000000001
   305   2      12.576000000000001                  11.959      20.765000000000001
   306   2                  12.115                  10.558      21.280000000000001
   307   3      5.5670000000000002      8.2050000000000001      19.734000000000002
   308   2      5.9450000000000003      8.3719999999999999      20.646000000000001
   309   2      6.2450000000000001      7.6890000000000001                  19.218
   310   3      8.9139999999999997                   1.782      16.699000000000002
   311   2      8.6560000000000006                   1.238                  17.532
   312   2      8.9280000000000008      2.6749999999999998      17.143999999999998
   313   3                  12.734                   8.673      27.318999999999999
   314   2      13.374000000000001      8.4540000000000006      28.056999999999999
   315   2                  12.621      7.8550000000000004      26.798999999999999
   316   3                  -1.179      11.215999999999999                   12.58
   317   2                  -1.472      10.467000000000001                  13.163
   318   2     -2.0190000000000001      11.779999999999999      12.500999999999999
   319   3                  -1.425      11.651999999999999                  16.308
   320   2     -1.6379999999999999      12.457000000000001      15.744999999999999
   321   2     -2.1150000000000002                   11.01                  16.349
   322   3      8.6430000000000007      10.829000000000001      18.736999999999998
   323   2      7.7830000000000004                  10.609      18.077000000000002
   324   2      8.2010000000000005                  10.978      19.582999999999998
   325   3      13.119999999999999    -0.56799999999999995                  13.164
   326   2      14.077999999999999     -1.0189999999999999      13.298999999999999
   327   2      12.792999999999999                  -0.191      13.981999999999999
   328   3      7.1470000000000002      7.1790000000000003      17.818000000000001
   329   2      7.9359999999999999      7.5629999999999997      18.350999999999999
   330   2      7.1769999999999996      6.1849999999999996      18.094999999999999
   331   3                  13.961      3.0600000000000001      26.045999999999999
   332   2                  13.794      3.3279999999999998      25.045999999999999
   333   2      14.500999999999999                   3.831      26.408999999999999
   334   3      20.591999999999999      15.273999999999999      19.277999999999999
   335   2      19.792000000000002                  14.778      18.943000000000001
   336   2      20.661000000000001                  16.128                  18.718
   337   3      15.965999999999999      8.3859999999999992                  17.593
   338   2      15.502000000000001      8.8689999999999998      18.379999999999999
   339   2                   15.59      9.0399999999999991      16.966999999999999
   340   3      14.736000000000001      13.138999999999999      22.667999999999999
   341   2      14.648999999999999      12.281000000000001      23.158000000000001
   342   2                   15.59                  13.045      22.155000000000001
   343   3      3.2330000000000001      9.5470000000000006      18.361000000000001
   344   2      4.1319999999999997      9.2680000000000007      18.646999999999998
   345   2      2.8260000000000001                  10.272      19.015000000000001
   346   3                  11.866     0.55700000000000005      15.348000000000001
   347   2                  11.004     0.23100000000000001      15.691000000000001
   348   2                  12.061      1.2549999999999999      16.048999999999999
   349   3      4.1470000000000002      6.0380000000000003                  20.686
   350   2      3.5579999999999998      5.6680000000000001      19.992999999999999
   351   2      4.5979999999999999      6.8550000000000004      20.234000000000002
   352   3   -0.099000000000000005      8.0410000000000004                   14.17
   353   2    0.096000000000000002      7.1369999999999996                  14.616
   354   2     0.45000000000000001      8.7469999999999999      14.542999999999999
   355   3                  13.987                  12.677      12.172000000000001
   356   2      14.157999999999999                  13.666      12.247999999999999
   357   2                  13.263                  12.488                  12.802
   358   3      6.1429999999999998      3.6190000000000002      24.172000000000001
   359   2      6.9960000000000004      3.5339999999999998      23.632999999999999
   360   2      6.5960000000000001      3.4359999999999999                  25.044
   361   3      2.1299999999999999      2.8820000000000001      21.736999999999998
   362   2      2.6110000000000002      2.5739999999999998      20.870000000000001
   363   2      1.1870000000000001                   2.984      21.600000000000001
   364   3      3.4169999999999998                     1.7                  19.497
   365   2      4.2839999999999998      1.5049999999999999                  19.962
   366   2      2.7890000000000001     0.95999999999999996      19.716000000000001
   367   3      4.1029999999999998      14.157999999999999      23.274999999999999
   368   2      3.6269999999999998                  14.209      24.129000000000001
   369   2                       4                  15.084      22.864999999999998
   370   3    -0.45400000000000001      11.103999999999999      28.821999999999999
   371   2    -0.60699999999999998                  11.775      29.466000000000001
   372   2    -0.57399999999999995                  10.205      29.181999999999999
   373   3      12.547000000000001      16.359999999999999      27.361000000000001
   374   2                  12.644      15.515000000000001      27.838999999999999
   375   2      11.952999999999999                  16.831      27.966000000000001
   376   3      14.670999999999999      5.0869999999999997                  12.122
   377   2      14.513999999999999      6.0700000000000003      12.114000000000001
   378   2                  15.689      4.8559999999999999                   12.19
   379   3      9.1099999999999994      14.696999999999999                  12.211
   380   2      8.6370000000000005      15.579000000000001      12.460000000000001
   381   2      8.5289999999999999      13.994999999999999      12.576000000000001
   382   3      9.1579999999999995      8.1039999999999992      19.379999999999999
   383   2      9.1579999999999995                   9.157      19.309000000000001
   384   2      9.2140000000000004      7.9290000000000003      20.350000000000001
   385   3      16.736000000000001      4.2220000000000004      16.423999999999999
   386   2      16.103000000000002      4.9909999999999997      16.434000000000001
   387   2      16.960999999999999      4.2210000000000001      17.385000000000002
   388   3                  13.429      9.5419999999999998                  15.972
   389   2                  12.791      8.7569999999999997      15.827999999999999
   390   2      13.032999999999999      10.148999999999999      16.670999999999999
   391   3      9.8699999999999992      16.827999999999999      28.847000000000001
   392   2      9.9339999999999993      17.004999999999999                  29.802
   393   2      9.3829999999999991      17.594999999999999      28.492999999999999
   394   3                  -1.524      5.5999999999999996      22.713000000000001
   395   2    -0.82699999999999996      5.7830000000000004      23.443000000000001
   396   2                  -1.137      5.8319999999999999      21.867000000000001
   397   3      1.4470000000000001      13.640000000000001      18.274000000000001
   398   2                   1.411                  12.802      18.829999999999998
   399   2                   0.626      14.023999999999999      18.411000000000001
   400   3      5.9560000000000004      11.122999999999999      25.588000000000001
   401   2      6.1639999999999997      12.023999999999999      25.196999999999999
   402   2      6.8159999999999998      10.624000000000001                  25.558
   403   3                  14.185      5.0380000000000003      29.443000000000001
   404   2      14.010999999999999      5.9720000000000004      29.701000000000001
   405   2      13.348000000000001      4.6050000000000004      29.783000000000001
   406   3      1.8620000000000001                  13.504                   13.01
   407   2      2.7709999999999999                  13.898      13.082000000000001
   408   2      1.3200000000000001      14.279999999999999                  12.705
   409   3      3.7090000000000001      12.037000000000001      15.766999999999999
   410   2      4.2229999999999999      12.659000000000001                  16.334
   411   2      2.9100000000000001      11.896000000000001                   16.34
   412   3      7.8929999999999998      11.223000000000001      21.326000000000001
   413   2      8.3279999999999994      11.715999999999999      22.082000000000001
   414   2      7.4379999999999997      10.465999999999999      21.800000000000001
   415   3      6.4429999999999996      9.2330000000000005      22.161999999999999
   416   2      5.5549999999999997      9.3940000000000001                  22.573
   417   2                   6.968      8.6479999999999997      22.731999999999999
   418   3                  10.544      2.3660000000000001                  13.792
   419   2                  10.394                   3.137                  14.311
   420   2      10.954000000000001      1.6140000000000001      14.358000000000001
   421   3      9.2159999999999993      1.3049999999999999      25.239999999999998
   422   2      9.9629999999999992     0.59299999999999997      25.327999999999999
   423   2      9.0640000000000001                   1.466      24.341000000000001
   424   3      8.8089999999999993      14.957000000000001      27.068999999999999
   425   2      9.2230000000000008                  14.096                  26.991
   426   2      9.3819999999999997                  15.484      27.643999999999998
   427   3      3.1309999999999998     0.21299999999999999                  12.458
   428   2      2.1619999999999999   -0.025999999999999999                   12.27
   429   2      3.0310000000000001      1.2010000000000001      12.675000000000001
   430   3                  14.919      9.1229999999999993                   13.65
   431   2                  14.461      9.4749999999999996      14.436999999999999
   432   2                  15.724                   8.593                  13.871
   433   3      5.9829999999999997      1.5369999999999999                  20.317
   434   2                   6.149      1.1830000000000001      21.202999999999999
   435   2      6.0499999999999998                   2.508      20.568000000000001
   436   3      12.763999999999999                  11.484                  17.875
   437   2                   12.56                  11.071                   18.73
   438   2                  13.526                  12.105      17.975000000000001
   439   3      2.5409999999999999      8.2270000000000003      26.606000000000002
   440   2      3.4980000000000002      8.2319999999999993                  26.657
   441   2      2.1669999999999998      7.5860000000000003      27.254999999999999
   442   3      13.590999999999999     -1.3600000000000001      17.882000000000001
   443   2                   12.94    -0.89400000000000002      18.414999999999999
   444   2                  13.984     -1.9810000000000001      18.574999999999999
   445   3                  12.769                    1.77                  22.276
   446   2      13.590999999999999      1.6419999999999999      21.713999999999999
   447   2      13.069000000000001      2.5579999999999998      22.797999999999998
   448   3                  17.602                  10.827      23.495000000000001
   449   2      17.736000000000001                  11.545      24.100999999999999
   450   2      17.518000000000001      11.470000000000001      22.704999999999998
   451   3      15.263999999999999                  15.035      12.571999999999999
   452   2      15.457000000000001      14.579000000000001                  13.458
   453   2                  14.827      15.835000000000001      12.874000000000001
   454   3      2.4049999999999998      5.3780000000000001                  18.003
   455   2      1.8200000000000001      6.1680000000000001      18.094999999999999
   456   2      1.7210000000000001      4.6890000000000001                  18.311
   457   3      4.5350000000000001      9.8719999999999999                  14.397
   458   2      4.8490000000000002      9.2029999999999994                  15.025
   459   2      4.3010000000000002                  10.692                  14.948
   460   3                   12.49      14.034000000000001                  14.648
   461   2                  12.074      14.542999999999999      13.923999999999999
   462   2                  13.055                  14.535                  15.305
   463   3      1.8580000000000001      11.457000000000001      19.725999999999999
   464   2     0.91000000000000003      11.308999999999999      19.815999999999999
   465   2      2.3450000000000002      11.696999999999999      20.553999999999998
   466   3      8.2609999999999992      4.2400000000000002                  12.355
   467   2      8.2360000000000007      3.6179999999999999      13.101000000000001
   468   2      7.3739999999999997                   4.516                  12.381
   469   3                  12.769                  13.545      21.062000000000001
   470   2                  12.052                  14.196      21.274999999999999
   471   2                  13.475                  13.506                  21.852
   472   3                   4.016      6.3959999999999999      29.879000000000001
   473   2      4.4160000000000004      7.2400000000000002      29.643999999999998
   474   2      4.8010000000000002      5.7430000000000003                  29.686
   475   3      1.3009999999999999      11.388999999999999      11.856999999999999
   476   2     0.30599999999999999      11.244999999999999                   12.02
   477   2      1.4450000000000001                  12.282                  12.315
   478   3                   1.123      1.8320000000000001      15.590999999999999
   479   2     0.38400000000000001      2.1200000000000001      16.155000000000001
   480   2      1.1180000000000001     0.86299999999999999      15.675000000000001
   481   3                  11.535      5.5510000000000002      22.015999999999998
   482   2      10.877000000000001      6.2549999999999999      22.135000000000002
   483   2      10.968999999999999      4.7510000000000003      21.902999999999999
   484   3      3.7069999999999999                  11.961      21.632999999999999
   485   2      3.8159999999999998                  12.756      22.251000000000001
   486   2      3.7930000000000001                   11.17      22.231000000000002
   487   3      10.529999999999999      2.7749999999999999      21.251999999999999
   488   2                  11.385      2.3570000000000002      21.484000000000002
   489   2                  10.522      3.1269999999999998      20.324999999999999
   490   3      7.5039999999999996      2.9209999999999998      26.364999999999998
   491   2      8.2940000000000005                   2.448                  26.032
   492   2      7.2270000000000003      2.3980000000000001      27.164000000000001
   493   3      10.513999999999999                  11.336      24.260999999999999
   494   2      9.9169999999999998                  12.145      24.018999999999998
   495   2                  11.269                  11.709      24.861000000000001
   496   3      15.744999999999999      14.069000000000001      14.882999999999999
   497   2      16.614000000000001                  14.349                  15.214
   498   2                  15.189      14.510999999999999                   15.58
   499   3                   0.499      6.3250000000000002      24.318999999999999
   500   2     0.95299999999999996      5.7329999999999997      25.007999999999999
   501   2                   1.147      6.5019999999999998                  23.648
   502   3      8.5700000000000003      9.9060000000000006      25.536999999999999
   503   2      9.0800000000000001      9.5739999999999998                   26.34
   504   2      9.3450000000000006                  10.458      25.117999999999999
   505   3     0.94199999999999995                   5.548                  14.794
   506   2                   1.966      5.5579999999999998                  14.872
   507   2     0.59799999999999998      4.8760000000000003      15.449999999999999
   508   3                   11.32      9.4309999999999992                  22.628
   509   2                   12.15      8.9670000000000005                  22.939
   510   2                  10.955                  10.182      23.193000000000001
   511   3      3.9769999999999999      4.5179999999999998      26.954999999999998
   512   2      4.1559999999999997      3.8439999999999999                  26.227
   513   2      3.1320000000000001      5.0060000000000002      26.649000000000001
   514   3      4.3609999999999998                  10.199      23.652999999999999
   515   2                   4.992                  10.366                  24.308
   516   2      3.5070000000000001      9.8510000000000009      24.135999999999999
   517   3    -0.93700000000000006                  11.743                  19.154
   518   2    -0.90100000000000002                   11.91      18.184999999999999
   519   2                  -1.569                    10.9      19.234999999999999
   520   3      1.3839999999999999      6.7030000000000003                  28.759
   521   2                   2.202      6.4930000000000003      29.312000000000001
   522   2                   1.046      5.7480000000000002      28.673999999999999
   523   3                  10.311                   12.91                  18.262
   524   2                   9.484                  12.385      18.466000000000001
   525   2      11.090999999999999                  12.288      18.202000000000002
   526   3      7.2009999999999996      14.827999999999999      20.867999999999999
   527   2      6.4550000000000001                  14.167      20.768000000000001
   528   2      7.5750000000000002                  14.824                  21.753
   529   3                  11.794                  11.468                  14.106
   530   2      11.827999999999999      12.388999999999999                  14.394
   531   2                   12.49                  11.012                  14.676
   532   3      3.5099999999999998      2.0659999999999998      16.774999999999999
   533   2      3.4359999999999999                   1.764      17.766999999999999
   534   2      2.6469999999999998      1.9179999999999999      16.376999999999999
   535   3      7.3289999999999997      4.4809999999999999                  18.503
   536   2      6.6639999999999997      4.1289999999999996                  17.901
   537   2      6.9640000000000004      4.3630000000000004      19.446000000000002
   538   3      3.8359999999999999      5.5069999999999997                  15.705
   539   2                   3.339      5.5540000000000003      16.568000000000001
   540   2      4.4829999999999997      6.2850000000000001      15.680999999999999
   541   3                   3.464      4.0700000000000003      23.876000000000001
   542   2      4.3890000000000002      3.7919999999999998      24.103000000000002
   543   2      3.2240000000000002      3.6269999999999998      23.021999999999998
   544   3      7.8330000000000002      7.9169999999999998      24.007999999999999
   545   2      7.4690000000000003      7.2329999999999997      24.550000000000001
   546   2      8.1289999999999996      8.5739999999999998                  24.695
   547   3                   15.41                  13.512      28.722000000000001
   548   2                  15.625      14.422000000000001      29.036999999999999
   549   2                  15.475      13.611000000000001      27.728999999999999
   550   3                   2.077                  16.337      29.039999999999999
   551   2      2.3959999999999999      17.172999999999998      29.376999999999999
   552   2      2.8620000000000001                  15.824      28.766999999999999
   553   3      2.2229999999999999     0.33400000000000002      23.263999999999999
   554   2                   2.351                   1.139      22.635999999999999
   555   2      3.1349999999999998                   0.185      23.667000000000002
   556   3                  13.728      17.934000000000001      13.172000000000001
   557   2      14.337999999999999      17.649999999999999      13.874000000000001
   558   2                  12.881      18.158000000000001      13.632999999999999
   559   3                   1.474      7.2380000000000004                  11.961
   560   2     0.78300000000000003      7.5529999999999999                   12.59
   561   2      2.2010000000000001      7.9470000000000001      12.135999999999999
   562   3      12.531000000000001      6.5730000000000004      25.495999999999999
   563   2                  13.036      5.7789999999999999      25.440000000000001
   564   2                  11.622      6.3250000000000002                  25.302
   565   3      6.8109999999999999                  13.382                  13.398
   566   2      7.2190000000000003      13.303000000000001                  14.298
   567   2      6.7400000000000002      12.438000000000001      13.196999999999999
   568   3      15.345000000000001      2.2799999999999998                  15.256
   569   2                  14.548      2.7519999999999998      14.832000000000001
   570   2      15.875999999999999      3.0299999999999998      15.688000000000001
   571   3      13.454000000000001      4.2389999999999999      23.702999999999999
   572   2                  12.663      4.5190000000000001      23.187999999999999
   573   2      14.220000000000001      4.6609999999999996                  23.183
   574   3      7.9370000000000003      6.7000000000000002      26.629999999999999
   575   2      7.5069999999999997      6.0060000000000002      27.190000000000001
   576   2                   8.077      7.4269999999999996                  27.256
   577   3                    5.46      9.0329999999999995      29.158999999999999
   578   2      5.3479999999999999      9.8879999999999999                  28.637
   579   2      4.9429999999999996      9.1460000000000008      29.969999999999999
   580   3     0.20999999999999999      4.2629999999999999                  27.895
   581   2     0.82199999999999995      4.1779999999999999      27.094999999999999
   582   2    -0.69299999999999995      4.6600000000000001      27.606999999999999
   583   3                  15.443    0.095000000000000001      16.966000000000001
   584   2                  15.256                   0.745      16.161999999999999
   585   2      14.608000000000001    -0.34000000000000002      17.289999999999999
   586   3      16.713999999999999      8.3800000000000008      28.283999999999999
   587   2      17.356999999999999      7.7039999999999997      28.574999999999999
   588   2      16.501999999999999      8.4220000000000006                  27.343
   589   3      8.2170000000000005     0.59399999999999997      18.905999999999999
   590   2      7.2809999999999997     0.83699999999999997      19.204999999999998
   591   2      8.6829999999999998     0.60799999999999998                   19.82
   592   3                  13.205      14.800000000000001      24.966000000000001
   593   2                  12.685                  15.432      25.588999999999999
   594   2                  12.815                  13.946                  25.302
   595   3      12.688000000000001    -0.31900000000000001      27.707000000000001
   596   2                  13.456                  -0.106      27.149999999999999
   597   2      12.967000000000001                  -1.194      28.079000000000001
   598   3                  13.692      7.4770000000000003                  12.025
   599   2      12.867000000000001      7.1159999999999997                  12.387
   600   2      14.010999999999999      8.1460000000000008                  12.686
   601   3      12.276999999999999      12.273999999999999                  26.081
   602   2                  13.144      11.875999999999999      26.347999999999999
   603   2      11.696999999999999      12.244999999999999                  26.904
   604   3      8.9100000000000001      16.469000000000001      24.751000000000001
   605   2      9.7959999999999994      16.120000000000001                  24.247
   606   2      8.8840000000000003      16.042000000000002      25.632999999999999
   607   3                  13.568      8.3559999999999999                  23.581
   608   2                  13.311      7.7930000000000001                  24.375
   609   2      14.101000000000001      9.1980000000000004                  23.805
   610   3      15.332000000000001      8.1280000000000001      21.420000000000002
   611   2                  14.965      7.8159999999999998                  22.285
   612   2                  16.058      7.4459999999999997                  21.105
   613   3      9.2379999999999995      7.8760000000000003                  12.044
   614   2      9.9299999999999997      7.3959999999999999                  12.557
   615   2      9.4380000000000006      8.8480000000000008      12.313000000000001
   616   3      8.0259999999999998      8.0470000000000006      29.018000000000001
   617   2      8.2750000000000004      7.5300000000000002                  29.753
   618   2      7.0380000000000003      8.3989999999999991      29.187999999999999
   619   3                  17.407      6.6310000000000002      20.268999999999998
   620   2      18.024999999999999      6.9509999999999996                  19.474
   621   2      18.184999999999999      6.6050000000000004      20.914000000000001
   622   3      6.6520000000000001                   7.625      12.875999999999999
   623   2      7.6020000000000003      7.7350000000000003                  12.552
   624   2      6.1829999999999998      8.2940000000000005                  12.362
   625   3      4.0739999999999998    -0.98999999999999999      29.190000000000001
   626   2      4.4829999999999997    -0.61299999999999999      29.940000000000001
   627   2      4.8799999999999999                   -1.24      28.646000000000001
   628   3      10.800000000000001                  12.222      28.103000000000002
   629   2                  11.327      12.611000000000001      28.838000000000001
   630   2                  10.653                  11.272      28.228999999999999
   631   3                  12.381      7.1790000000000003                  15.715
   632   2                  13.318      6.8140000000000001                  15.827
   633   2                    11.9      6.8680000000000003      16.518000000000001
   634   3                  11.577      3.7469999999999999      29.536999999999999
   635   2                   11.43                   3.637      28.533000000000001
   636   2                  11.023                   4.516      29.789000000000001
   637   3      5.1180000000000003      7.7610000000000001                  26.657
   638   2      5.3079999999999998                   7.431      25.774999999999999
   639   2                    5.71      7.3090000000000002      27.257999999999999
   640   3                  13.571                   1.776      11.957000000000001
   641   2                  13.263                   2.504                  12.548
   642   2      13.298999999999999     0.90400000000000003      12.348000000000001
   643   3      9.4670000000000005      10.441000000000001      13.236000000000001
   644   2      9.2509999999999994      10.108000000000001                  14.153
   645   2                  10.323      11.016999999999999      13.417999999999999
   646   3      6.1509999999999998      17.271000000000001      20.347999999999999
   647   2      6.8650000000000002      17.716999999999999      20.946999999999999
   648   2      6.5899999999999999      16.370000000000001      20.274999999999999
   649   3                  11.263      6.5979999999999999      18.094999999999999
   650   2                  10.625      7.2190000000000003                   18.48
   651   2      12.058999999999999      6.6079999999999997      18.670999999999999
   652   3   -0.051999999999999998                   1.268      18.353999999999999
   653   2     0.51600000000000001     0.53600000000000003      18.684000000000001
   654   2    -0.78600000000000003     0.89400000000000002      17.815000000000001
   655   3      2.1040000000000001      8.8989999999999991      23.989999999999998
   656   2      2.0179999999999998      8.4949999999999992                  24.939
   657   2      1.3129999999999999      9.5239999999999991                   23.82
   658   3      11.377000000000001                   3.274      26.757999999999999
   659   2                  12.339      3.2330000000000001                   26.52
   660   2                  11.211                   2.347      26.923999999999999
   661   3                  14.368                   7.891      29.175000000000001
   662   2      14.093999999999999      8.2579999999999991                  30.032
   663   2      15.329000000000001                   7.931      28.879999999999999
   664   3                   6.673                  10.884                  12.654
   665   2      6.1210000000000004                  10.359      13.249000000000001
   666   2                   7.657                  10.772      12.747999999999999
   667   3                  14.891      10.550000000000001                  24.067
   668   2      15.026999999999999                  10.637                  25.038
   669   2                   15.82                  10.225      23.812000000000001
   670   3                  11.064      4.2709999999999999                  11.903
   671   2                  11.004      3.3679999999999999                  12.419
   672   2                  10.132      4.5469999999999997                  12.004
   673   3                  13.375      3.6200000000000001                  13.971
   674   2                  12.538                   4.109                  14.262
   675   2      13.951000000000001      4.2800000000000002      13.460000000000001
   676   3      17.888999999999999      15.789999999999999                  12.044
   677   2      16.922000000000001                  15.699                  12.244
   678   2      18.251999999999999      16.399000000000001      12.755000000000001
   679   3      8.8109999999999999      6.3200000000000003      15.085000000000001
   680   2                   8.157      6.6299999999999999      15.782999999999999
   681   2      9.1219999999999999      7.2480000000000002      14.832000000000001
   682   3      9.0869999999999997      9.3140000000000001                  15.808
   683   2      9.5489999999999995      9.3599999999999994                  16.616
   684   2      8.1859999999999999      9.5389999999999997                  16.058
   685   3      12.162000000000001      2.4079999999999999      17.672999999999998
   686   2                  12.939      2.8210000000000002      18.097999999999999
   687   2      11.374000000000001      2.9870000000000001      17.850000000000001
   688   3      7.6639999999999997                  12.929                  15.904
   689   2      7.2960000000000003      13.749000000000001                  16.442
   690   2      8.6150000000000002      13.069000000000001      15.922000000000001
   691   3      5.5170000000000003      7.7069999999999999      15.608000000000001
   692   2      5.9100000000000001                   7.806                   14.69
   693   2      6.0709999999999997      7.5629999999999997      16.425000000000001
   694   3     0.28299999999999997                   3.843                  18.945
   695   2   -0.066000000000000003      4.2370000000000001      19.731999999999999
   696   2     0.26900000000000002      2.8159999999999998      18.876999999999999
   697   3      4.8209999999999997      11.276999999999999      27.812999999999999
   698   2      5.2949999999999999                  11.225      26.928000000000001
   699   2      3.8919999999999999                   10.99      27.675999999999998
   700   3      16.789000000000001      2.8500000000000001      22.370999999999999
   701   2                  16.695      3.8460000000000001      22.472000000000001
   702   2                  17.125      2.4670000000000001      23.193000000000001
   703   3      4.9809999999999999      6.8970000000000002      24.071999999999999
   704   2      5.5860000000000003                    6.21                  23.727
   705   2      4.1260000000000003      6.3949999999999996      24.091999999999999
   706   3                  -0.126      4.3300000000000001                  12.462
   707   2    -0.29299999999999998      3.2959999999999998      12.710000000000001
   708   2     0.39700000000000002      4.8120000000000003                  13.121
   709   3      2.4140000000000001      2.7909999999999999                  13.448
   710   2                   1.657                   2.738      14.037000000000001
   711   2      2.4239999999999999      3.5409999999999999      12.843999999999999
   712   3      2.2200000000000002      6.8879999999999999      22.286000000000001
   713   2                       3      6.5190000000000001      21.815999999999999
   714   2      2.5600000000000001      7.6580000000000004                  22.852
   715   3      6.7690000000000001      10.553000000000001      16.792000000000002
   716   2      6.8700000000000001                  11.461                  16.314
   717   2      5.8570000000000002      10.569000000000001      17.173999999999999
   718   3      6.4800000000000004     0.88300000000000001      22.995000000000001
   719   2                   6.319   -0.043999999999999997                  23.006
   720   2                   6.569                    1.21      23.908000000000001
