data.lmp (written by ASE) 

486 	 atoms 
4  atom types
0.0      14.478999999999999  xlo xhi
1.9401860000000006    14.479  ylo yhi
0.0      44.457999999999998  zlo zhi
    -7.2394999999999952                       0                       0  xy xz yz


Atoms 

     1   1 -1.0000000000000001e-15       1.671218178605111                       0
     2   1     -5.7919999999999989      11.702999999999999                       0
     3   1     -1.4479999999999971      4.1799999999999997                       0
     4   1      7.2400000000000002       9.195999999999998                       0
     5   1      2.8959999999999999      6.6879999999999997                       0
     6   1      4.3439999999999994       9.195999999999998                       0
     7   1      4.3440000000000012      4.1799999999999997                       0
     8   1                   1.448       9.195999999999998                       0
     9   1       7.240000000000002      4.1799999999999997                       0
    10   1                  -1.448       9.195999999999998                       0
    11   1                  10.135      4.1799999999999997                       0
    12   1     -4.3439999999999994       9.195999999999998                       0
    13   1     -2.8959999999999959      6.6879999999999997                       0
    14   1      8.6880000000000024      6.6879999999999997                       0
    15   1                       0      6.6879999999999997                       0
    16   1      5.7920000000000016      6.6879999999999997                       0
    17   1      11.582999999999995       1.671218178605111                       0
    18   1      -2.895999999999999      11.702999999999999                       0
    19   1                   1.448      4.1799999999999997                       0
    20   1      5.7920000000000007      11.702999999999999                       0
    21   1      5.7919999999999954       1.671218178605111                       0
    22   1      2.8959999999999959       1.671218178605111                       0
    23   1                       0      11.702999999999999                       0
    24   1      8.6879999999999953       1.671218178605111                       0
    25   1      2.8959999999999999      11.702999999999999                       0
    26   1                       0                   5.016      2.3639999999999999
    27   1      8.6880000000000006                   5.016      2.3639999999999999
    28   1                  11.583                   5.016      2.3639999999999999
    29   1      -2.895999999999999                  10.032      2.3639999999999999
    30   1      5.7919999999999998                   5.016      2.3639999999999999
    31   1      10.135000000000002      7.5239999999999991      2.3639999999999999
    32   1      10.135000000000002                   2.508      2.3639999999999999
    33   1     -4.3434999999999988                 12.5388      2.3639999999999999
    34   1                  -1.448      7.5239999999999991      2.3639999999999999
    35   1      7.2400000000000011                   2.508      2.3639999999999999
    36   1      7.2394999999999996                 12.5388      2.3639999999999999
    37   1      5.7919999999999989                  10.032      2.3639999999999999
    38   1      2.8959999999999999                  10.032      2.3639999999999999
    39   1       2.895999999999999                   5.016      2.3639999999999999
    40   1      7.2400000000000029      7.5239999999999991      2.3639999999999999
    41   1      4.3440000000000003                   2.508      2.3639999999999999
    42   1                 -1.4475                 12.5388      2.3639999999999999
    43   1       1.448500000000001                 12.5388      2.3639999999999999
    44   1      4.3440000000000003      7.5239999999999991      2.3639999999999999
    45   1      4.3435000000000006                 12.5388      2.3639999999999999
    46   1                   1.448                   2.508      2.3639999999999999
    47   1  9.5340000000000004e-12                  10.032      2.3639999999999999
    48   1                   1.448      7.5239999999999991      2.3639999999999999
    49   1      8.6870000000000012                  10.032      2.3639999999999999
    50   1      13.031000000000001                   2.508      2.3639999999999999
    51   1      7.1916500000000001      5.7134299999999998      4.6916599999999997
    52   1     -4.3058800000000002      10.842599999999999      4.7538200000000002
    53   1      7.2446400000000031      10.905399999999998      4.7669499999999996
    54   1      2.9727899999999998      8.4118499999999994      4.7281399999999998
    55   1      8.8081200000000024      8.4026999999999994      4.7574199999999998
    56   1      1.4595100000000001      10.879199999999999      4.8588800000000001
    57   1                -2.77379      8.1896799999999992      4.7682700000000002
    58   1      5.8534000000000006      8.2289999999999992                 4.61395
    59   1      4.4759500000000001      10.821999999999999      4.7960799999999999
    60   1               -0.145735      8.4496099999999998      4.7463899999999999
    61   1      10.108300000000002      5.8388099999999996      4.6390500000000001
    62   1      -1.487819999999999      10.910699999999999      4.7759600000000004
    63   1      4.4695099999999996      5.7891700000000004      4.6890000000000001
    64   1      10.078089999999996     0.93391817860511295      4.7199400000000002
    65   1      1.4746699999999959     0.93411817860511304      4.8454300000000003
    66   1      2.7613799999999999                  3.4474      4.7613700000000003
    67   1                 1.51589      5.9381399999999998      4.9855600000000004
    68   1      4.1951299999999954     0.88161817860511105      4.8094700000000001
    69   1   -0.098180000000000003      3.3659400000000002                 4.69672
    70   1      7.3362297999999964       0.634018178605111                  4.9291
    71   1     -1.2511099999999999      5.8545600000000002      4.8220499999999999
    72   1      8.7471600000000009                 3.28518      4.8129299999999997
    73   1      5.8845900000000002      3.1265700000000001      4.6796199999999999
    74   1      11.533799999999999      3.4809000000000001      4.9202399999999997
    75   1      13.049589999999997     0.88321817860511098      4.6189099999999996
    76   1      5.8189200000000003      11.581399999999999      7.1323600000000003
    77   1      -1.527299999999997      4.1063299999999998      7.3281499999999999
    78   1      7.3682199999999991      9.1911099999999983      7.1492300000000002
    79   1      11.669009999999997       1.535218178605112      7.1491699999999998
    80   1      2.9985400000000011      6.7389000000000001      7.1123600000000007
    81   1      8.7906699999999951      1.5438181786051119      7.2119400000000002
    82   1     -2.9087499999999999                 11.6228      7.3198699999999999
    83   1      5.8542299999999958      1.4707181786051129       7.142100000000001
    84   1   -0.076281199999998994      11.543699999999998      7.2301700000000002
    85   1      2.9027099999999959       1.675318178605113      7.2304199999999996
    86   1      2.8722599999999998      11.730399999999998      7.0933599999999997
    87   1    -0.13758000000000201       1.694818178605112      7.2023099999999998
    88   1     -5.7484199999999968      11.710499999999998      6.9569799999999997
    89   1                 1.40747      3.9037799999999989      7.2313499999999999
    90   1      4.2866599999999986      9.1740099999999991      6.9733099999999997
    91   1                0.108857      6.5166399999999989      7.2848699999999997
    92   1      1.4186900000000009      9.1528799999999979      7.2342800000000009
    93   1      4.3705800000000004      4.2327899999999996      7.0605300000000009
    94   1     -2.8334999999999981      6.5934599999999994      6.9520499999999998
    95   1      10.106400000000004      4.1968199999999998      7.2183400000000004
    96   1     -1.3786099999999999      9.0523199999999999      7.2481099999999996
    97   1      7.1611500000000001      4.0910399999999987      7.0719000000000003
    98   1      8.6522400000000008      6.6740700000000004      7.0659400000000003
    99   1      5.8677299999999999      6.7331899999999987      7.0331999999999999
   100   1      -4.295599999999995      9.1215700000000002      7.0387899999999997
   101   1      11.454499999999999                 5.15937      9.8281500000000008
   102   1    0.082096600000000006       9.815179999999998      9.5996199999999998
   103   1      1.4527699999999999      2.4066800000000002      9.6840100000000007
   104   1      5.8346499999999999      4.8832599999999999      9.4211100000000005
   105   1      3.0146799999999998      9.9891900000000007      9.4399099999999994
   106   1       7.263060000000003      12.302599999999998      9.5420099999999994
   107   1   -0.021674700000000002       4.942289999999999      9.5562900000000006
   108   1      2.7892100000000011      5.0384599999999988      9.5252300000000005
   109   1     -4.3686199999999999      12.475799999999998                 9.63706
   110   1      5.7592999999999961       0.116818178605113      9.5885300000000004
   111   1                 10.0472      2.4617100000000001      9.4908599999999996
   112   1      8.5962099999999992      5.1101999999999999      9.4182199999999998
   113   1                 1.35832      7.4159699999999988      9.6635299999999997
   114   1      1.6352800000000001                 12.4754      9.6527899999999995
   115   1     -5.6434399999999982       9.876319999999998      9.5975999999999999
   116   1      10.129500000000002      7.4165000000000001      9.2358100000000007
   117   1      7.2382600000000021      2.5578599999999998      9.3250600000000006
   118   1      4.5420999999999987      12.456699999999998      9.6056000000000008
   119   1      7.1473699999999996      7.4683499999999992      9.5023300000000006
   120   1                -1.50624                 7.35541      9.5097299999999994
   121   1                 12.9841      2.4316200000000001      9.5488199999999992
   122   1       4.408590000000002      7.4527299999999999      9.4408399999999997
   123   1      4.3762600000000003      2.6522600000000001      9.4397500000000001
   124   1      -2.874379999999999      9.9533299999999993      9.3715700000000002
   125   1      5.9017600000000012      9.8987899999999982      9.5174500000000002
   126   4      3.0952500000000001      7.9382299999999999      22.782800000000002
   127   3      3.5392600000000001      8.6981800000000007      23.110900000000001
   128   3      2.6516199999999999      7.4617999999999993      23.479299999999999
   129   4     0.50294899999999998      2.5310800000000002                 24.5246
   130   3                 1.32294      2.1131500000000001      24.162099999999999
   131   3     0.63933899999999999      3.1096300000000001      25.242200000000004
   132   4      2.2185300000000021      12.249199999999998      28.183499999999995
   133   3      9.9206299999999974       0.314018178605112      27.590299999999999
   134   3      1.3986100000000019      12.128799999999998      27.708100000000002
   135   4    -0.54331700000000005      8.3181700000000003      23.340499999999999
   136   3    -0.99426099999999895      8.6239899999999992      22.528300000000002
   137   3       0.209845000000001                 8.96706      23.513000000000002
   138   4      7.5015900000000002      7.0168699999999991      15.529400000000001
   139   3      6.6908000000000003      7.4889699999999992                 15.1715
   140   3                 7.32118      6.5975799999999998      16.436699999999998
   141   4      8.1201929999999969       0.053018178605114                 12.1821
   142   3      7.2671860999999964     0.47261817860511302      12.012700000000001
   143   3     0.65085300000000101      11.665100000000001      12.236499999999999
   144   4    -0.79967299999999997       5.692099999999999      16.358799999999999
   145   3                -1.12191      6.5083799999999989                 16.7685
   146   3    0.021592400000000001      6.0040099999999992                 16.0428
   147   4      2.3489299999999949     0.60291817860511299                 17.2728
   148   3      2.5829199999999961     0.63381817860511203                 16.2668
   149   3     -2.8222200000000002      10.202999999999998      16.001100000000001
   150   4      8.6422100000000004                  5.4821      23.436800000000002
   151   3      8.3886800000000008      6.4826100000000002      23.441400000000002
   152   3      8.2814099999999975      5.1783599999999987      24.322700000000001
   153   4      5.7068000000000003                 10.0555      12.148199999999999
   154   3     -1.8700699999999999      8.4064799999999984                 12.9825
   155   3      6.3946199999999997      10.651799999999998      12.540700000000001
   156   4      5.6817899999999968     0.84801817860511397                 18.2318
   157   3      5.4023099999999964     0.72751817860511103      19.124099999999999
   158   3      4.8514199999999956       0.868918178605113      17.689499999999999
   159   4     0.67229999999999701     0.29351817860511498      26.158300000000001
   160   3      5.0364800000000001      10.645899999999999      27.490100000000002
   161   3      6.9955700000000016                 12.4902      26.264099999999999
   162   4      10.571919999999995     0.57991817860511297      13.916500000000001
   163   3       5.818189999999996     0.72851817860511303      14.877499999999998
   164   3      9.9364199999999965     0.75421817860511198                 13.1906
   165   4      14.056109999999999       0.421318178605113      13.941800000000001
   166   3      7.3158899999999996      12.229099999999999                 13.4939
   167   3      2.8988800000000001      9.1776300000000006      12.329599999999999
   168   4     0.35622199999999998      11.474500000000001      22.952999999999999
   169   3     0.53030999999999995      12.452699999999998      22.947900000000001
   170   3     0.81567800000000101      11.243099999999998      22.088200000000001
   171   4      4.9896300000000018      8.0033200000000004      14.238200000000001
   172   3     0.98948199999999997      3.9437600000000002                 15.4468
   173   3      4.4984100000000016      7.9558799999999987      13.384899999999998
   174   4      9.7090300000000003                 2.37479                 11.8508
   175   3       2.826420000000001      5.9813599999999987      15.779300000000001
   176   3       4.677259999999996     0.94681817860511397                 11.6233
   177   4                -3.49396      10.483499999999999      17.690300000000001
   178   3     -4.0282400000000003      9.8295399999999979                 18.1662
   179   3      9.8131299999999992      5.9768899999999991      12.546099999999999
   180   4     -1.5672600000000001      10.522099999999998      19.800799999999999
   181   3      -1.694370000000001      9.5331799999999998      20.027899999999999
   182   3      -2.087330000000001      10.763199999999999                 19.0151
   183   4                  -1.804      11.429799999999998                 25.5259
   184   3     -2.6693499999999988      11.418099999999999                 25.9693
   185   3     -2.0413800000000002                 11.2041      24.582799999999999
   186   4      3.3890500000000001                 12.0236      25.213699999999999
   187   3      2.7059300000000022      11.319499999999998      24.998099999999997
   188   3      10.608289999999997     0.34971817860511101      24.607800000000001
   189   4      8.1112499999999983                 10.4855                 15.2303
   190   3     -5.5785099999999996      9.8610199999999999      15.281400000000001
   191   3      7.4702400000000013      10.056399999999998      14.598000000000003
   192   4                 -1.9735      4.3457600000000003                 13.1402
   193   3     -1.7908999999999951      3.4681600000000001                 12.7277
   194   3                -1.18242                  4.8384      12.873700000000001
   195   4     -2.2710999999999979      4.0952200000000003                 27.0472
   196   3     -1.2921400000000001      4.1816399999999989      26.838299999999997
   197   3     -2.4631999999999969      4.7589299999999994                 27.7502
   198   4      5.3178399999999968       0.247718178605111      11.696999999999999
   199   3      8.7647099999999991      2.2528199999999998      12.079599999999999
   200   3     -3.0608900000000001      11.847299999999999      12.516499999999999
   201   4      10.519299999999999                 3.54026      25.131900000000002
   202   3      7.7382999999999988      5.2152399999999988      26.629899999999999
   203   3      9.7286900000000003      3.0269900000000001      25.408799999999996
   204   4      5.4622900000000003      11.268000000000001      26.875299999999999
   205   3      8.8528500000000001      3.0359400000000001      21.029399999999999
   206   3      4.7028500000000006                 11.6243      26.333500000000001
   207   4      -3.550799999999998                 6.26715      28.447600000000001
   208   3     -3.2277999999999971      6.8740500000000004      27.771300000000004
   209   3     -3.2734999999999972      6.6531700000000003                 29.2957
   210   4      1.8183199999999999      9.5388500000000001      25.220399999999998
   211   3      1.3957999999999999      9.8655799999999996      26.011199999999999
   212   3      2.5649099999999998      8.9706399999999977      25.443099999999998
   213   4       8.193089999999998       2.161109999999999      25.709299999999999
   214   3      7.6200839999999959      1.4049181786051119      25.977399999999999
   215   3      8.2396899999999995      2.0558100000000001                 24.7593
   216   4      4.2850900000000003      4.5985399999999998      19.895299999999999
   217   3                 3.84137      5.3710699999999996                 19.4391
   218   3      6.1812399999999998      12.469099999999997      14.536199999999997
   219   4      3.4999999999999991      6.6002599999999987      16.074300000000001
   220   3       3.784870000000002      7.1759899999999988      15.313999999999998
   221   3    -0.10369299999999999      6.6635400000000002      11.980399999999999
   222   4       8.065290000000001                 3.59904      21.050000000000001
   223   3      8.3109599999999997      4.3323200000000002      21.654299999999999
   224   3      5.2316600000000006      10.443099999999999                 23.4695
   225   4     0.94076700000000002      10.530900000000001                 20.5472
   226   3    -0.45872299999999999      5.9953900000000004      25.421199999999999
   227   3                0.034157      10.703299999999999      20.138000000000002
   228   4      4.2022399999999998      2.8239200000000002      27.203600000000002
   229   3       5.255009999999996     0.62431817860511296      25.221399999999999
   230   3       3.896230000000001                 3.71454      27.054500000000004
   231   4    -0.62443700000000002      6.1083499999999997      20.645600000000002
   232   3     0.12146999999999999      6.6298399999999988      21.014500000000002
   233   3               -0.833901      5.3754899999999992      21.226500000000001
   234   4      4.8409499999999959      1.4915181786051119      24.965299999999999
   235   3                 11.4815      3.8681399999999999      21.653099999999998
   236   3      11.162600000000001                  3.4739      25.894100000000002
   237   4                -2.94184      8.1008200000000006      26.531099999999995
   238   3     -3.3717999999999999      8.9360599999999977      26.284199999999995
   239   3     -3.4285999999999972      7.4447200000000002      25.916799999999999
   240   4      6.7660099999999987                 3.74627      18.893599999999999
   241   3      7.3058099999999992                 3.57856      19.671299999999999
   242   3      6.5341799999999992       2.946159999999999      18.481400000000001
   243   4      4.9322499999999998      10.900899999999998      15.051399999999999
   244   3      4.6238999999999999                 10.9259      15.963800000000001
   245   3      8.5902400000000014      8.6569099999999981      18.424700000000001
   246   4       2.715139999999999                 10.0871                 12.1113
   247   3       4.212930000000001      11.475099999999998      14.723100000000002
   248   3     -3.1798099999999989      10.848499999999998      13.912899999999999
   249   4       5.042180000000001                 11.7401      17.765999999999998
   250   3      5.6596299999999999      11.466900000000001      18.479900000000001
   251   3      4.0807900000000004      11.762699999999999                 18.1065
   252   4      9.5259999999999998      8.4475899999999999      18.619299999999999
   253   3      -0.366999999999996      2.3790100000000001      14.699299999999999
   254   3      5.2688999999999986      11.076700000000001      21.271799999999999
   255   4      1.5782499999999959      1.7449181786051129      28.313099999999995
   256   3      1.2578299999999949     0.95971817860511399                 27.8901
   257   3      1.2447999999999959      1.8872181786051121      29.184899999999999
   258   4      4.5233999999999996      8.7051499999999997                 18.2319
   259   3      5.2610900000000003      8.9089500000000008                 17.6935
   260   3      4.2276099999999994      9.5918100000000006                 18.6553
   261   4      9.7921999999999993      5.1596999999999991      12.985600000000002
   262   3     -4.0968999999999989      8.2379899999999981      16.022300000000001
   263   3       1.349069999999996     0.82681817860511297      17.201499999999999
   264   4      2.4431099999999959       0.842718178605113                 14.5352
   265   3     -4.5828600000000002      12.449099999999998      14.436199999999998
   266   3       1.456829999999995     0.86781817860511101      14.678100000000001
   267   4      3.7630500000000011      3.6854100000000001      22.799199999999999
   268   3       3.613049999999999       2.727009999999999      22.925999999999998
   269   3      3.6896100000000001                 3.78335      21.826899999999998
   270   4     -4.5235300000000001      10.327199999999998                 20.8035
   271   3     -4.5388899999999959      9.4832699999999974                 20.2148
   272   3     -3.6028699999999998      10.710099999999999      20.770199999999999
   273   4     -6.1052999999999997      11.502999999999998      12.310700000000001
   274   3     -5.3570799999999981      11.041399999999999      12.756600000000001
   275   3                -5.98123                 11.6793                 11.3207
   276   4    0.093198600000000006      5.9497499999999999      12.675200000000002
   277   3                -4.05274      11.269199999999998      17.645800000000001
   278   3     0.12909499999999999                 6.48034      13.524399999999998
   279   4     0.16298899999999999      10.928599999999998      27.311299999999999
   280   3    0.091034599999999993                 10.2342      28.089700000000001
   281   3    -0.67395300000000002      10.773199999999999      26.879200000000001
   282   4      3.5443600000000002      2.9761299999999999      17.826699999999999
   283   3                 3.07457      2.1043500000000002      17.771100000000001
   284   3       3.624470000000001      3.1982900000000001      18.771599999999999
   285   4                  12.074      2.6643699999999999      19.542300000000001
   286   3      12.032300000000001      3.1673100000000001      18.733699999999999
   287   3     -1.4485999999999979      2.5234000000000001      19.756799999999998
   288   4                 1.49854      7.8683399999999999                 20.7258
   289   3       2.028560000000001      7.7940999999999994      21.568899999999999
   290   3      1.9789600000000009      7.4003199999999989                 20.0383
   291   4               -0.733348      3.9493999999999998      22.156500000000001
   292   3    -0.63026000000000004      4.1004899999999997      23.125900000000001
   293   3   -0.082000199999999995      3.2948599999999999                 22.0395
   294   4                -1.68377      7.8689600000000004      17.514399999999998
   295   3                -1.79291      8.7257400000000001      17.114899999999999
   296   3                -2.18804      7.7940499999999986      18.325399999999998
   297   4      8.2475299999999994      8.1629199999999997      22.592099999999999
   298   3      7.9455300000000006       8.003639999999999      21.668600000000001
   299   3      7.5331900000000012      8.7764000000000006      22.924800000000001
   300   4      4.4488400000000006                 10.3399                 22.7988
   301   3     -3.2599100000000001      7.6407099999999986                 23.3996
   302   3      3.8358500000000011      10.915499999999998      23.302099999999999
   303   4      7.9950900000000011      4.4089099999999988      14.610900000000001
   304   3      7.6091499999999987      5.0827099999999987      15.194699999999999
   305   3      8.8083400000000012      4.7830499999999994      14.147400000000001
   306   4      2.0128300000000001      5.8104199999999997                 23.7849
   307   3      2.5824799999999999      5.0744999999999996      23.565000000000001
   308   3      1.1559299999999999       5.532049999999999      23.846900000000002
   309   4      2.8755500000000001       5.313559999999999      26.466999999999995
   310   3       2.416840000000001       5.438979999999999                 25.6097
   311   3      3.2384400000000002      6.2312900000000004      26.502700000000001
   312   4      9.5771800000000002                 2.51464                 15.8581
   313   3      8.9577999999999971      1.9551181786051131                 16.3566
   314   3      8.9517600000000019      3.1334399999999998      15.444000000000001
   315   4      11.133099999999999      4.2136800000000001                 17.2807
   316   3      10.607700000000001      3.6216499999999998                 16.7837
   317   3               -0.115883      4.8804199999999991                 17.7636
   318   4      5.9773499999999986      6.9606299999999992      24.309699999999999
   319   3      5.6499400000000009      6.6160500000000004                 23.4984
   320   3      6.3300499999999991      6.2562300000000004                 24.8597
   321   4    -0.63458999999999999      5.6893999999999991      24.499500000000001
   322   3    -0.68801500000000004      6.5743200000000002      23.997900000000001
   323   3      4.7513399999999946       1.540318178605113                  21.163
   324   4      -0.278480000000003      1.3036181786051131      16.761099999999999
   325   3    -0.48229999999999801       2.160909999999999      17.148900000000001
   326   3      13.539829999999997     0.72161817860511301                 17.0029
   327   4      2.5474900000000011                 11.4915      18.791899999999998
   328   3      10.325869999999998       1.167518178605111      14.683700000000002
   329   3      1.9085300000000009                  11.032      19.311800000000002
   330   4      5.7905300000000004      10.852899999999998      20.416599999999999
   331   3      5.9806199999999992      9.8960699999999999      20.526900000000001
   332   3      13.167449999999995      1.3628181786051119                 12.5303
   333   4       5.541269999999999      4.9645599999999996      15.952399999999999
   334   3      4.7207299999999996      5.3855300000000002                  16.302
   335   3      5.4905099999999996      4.9203900000000003                  15.007
   336   4      6.7108299999999996      10.761899999999999      24.239699999999999
   337   3      6.5888300000000006                 11.8101      24.091799999999999
   338   3      6.4888500000000002      10.608700000000001      25.177400000000002
   339   4     -2.3295899999999992      11.163399999999999      22.858000000000001
   340   3     -1.2961400000000001      11.293299999999999                  22.741
   341   3     -2.4639199999999999      10.188299999999998      22.879999999999999
   342   4      7.8247799999999987      6.0039800000000003      17.735499999999998
   343   3      7.2326100000000011      5.2723500000000003                 17.9284
   344   3      8.5616800000000008      5.7346899999999996                  18.337
   345   4    -0.35229100000000002      7.6900899999999996      27.305900000000001
   346   3      5.1329600000000006      4.4715199999999999      19.432099999999998
   347   3                0.229382      8.1710799999999999      26.728899999999999
   348   4                -2.43377      8.0990599999999997                  20.401
   349   3     -1.8368199999999999      7.2770699999999993      20.428699999999999
   350   3                -2.70811      8.2082899999999999      21.339099999999998
   351   4      4.5792499999999956     0.72221817860511395      20.662600000000001
   352   3                -2.51213                 12.4846                 21.2727
   353   3      9.8648199999999999      3.3221099999999999                 11.8177
   354   4      5.2004600000000014      5.4890999999999996                 12.6911
   355   3      4.2526100000000007      5.1973099999999999                 12.9041
   356   3      5.7183999999999999      4.6294700000000004      12.714700000000002
   357   4     -3.3842099999999999      8.3915400000000009      22.771899999999999
   358   3     -4.3375999999999983      8.3694400000000009      22.438099999999999
   359   3     0.52274999999999505      1.0372181786051109      25.537600000000005
   360   4      8.5272599999999983       8.263659999999998      25.836300000000001
   361   3      8.9665200000000027      9.1824300000000001      25.760300000000004
   362   3      7.8673900000000012      8.0794599999999974      25.178599999999999
   363   4      10.838439999999995       1.443618178605111      23.470099999999999
   364   3      10.522199999999998       1.403218178605113      22.526499999999999
   365   3                 10.5989                 2.31521      23.813199999999998
   366   4     0.75095000000000001      7.6930799999999993                 14.7224
   367   3                 1.22875      8.1165800000000008                 15.5273
   368   3                  2.7033      6.3879499999999991      12.999800000000002
   369   4      7.3816799999999994      4.9467999999999996                 25.7303
   370   3      4.7224000000000013      7.5469999999999997      25.248799999999999
   371   3      6.9287100000000006      4.1374099999999991      25.854199999999999
   372   4     0.49740699999999999      4.4066799999999988      18.436399999999999
   373   3     0.34514499999999998      4.9433699999999998      19.247599999999998
   374   3      4.7426000000000004      1.9773400000000001                 25.7957
   375   4      12.541909999999996      1.9234181786051141      12.091200000000001
   376   3      11.651839999999995      1.7253181786051119                 12.4801
   377   3                 11.8817       4.452119999999999      16.661100000000001
   378   4     -4.6346299999999996      10.880599999999999      25.674300000000002
   379   3     -4.6612200000000001      10.873799999999997      24.701499999999999
   380   3     -5.0549099999999996      11.753299999999999      25.914000000000001
   381   4      3.1325099999999999                 1.97146                 12.0326
   382   3                  3.3165      2.7938200000000002      12.515499999999998
   383   3      2.7801399999999949      1.4139181786051129      12.738999999999999
   384   4      7.2212300000000003      9.8006799999999998                 18.0442
   385   3      7.3927899999999998      10.623699999999999                 18.5854
   386   3      7.4977400000000012      10.083299999999999      17.191500000000001
   387   4       3.951410000000001      7.8311899999999994      25.890599999999999
   388   3                 3.47052      2.3453300000000001                 27.5916
   389   3      4.2744799999999987      8.3738399999999977      26.605999999999998
   390   4     0.62544299999999997      3.7699199999999999      26.782899999999998
   391   3     0.61707400000000001      3.0253899999999998                 27.4907
   392   3      1.2023200000000001      4.4944300000000004      27.026099999999996
   393   4       1.872679999999999      4.2483399999999989      15.737400000000001
   394   3       2.223170000000001      3.8521800000000002      16.501100000000001
   395   3      6.1719799999999987      9.1846699999999988      12.257400000000001
   396   4      4.6429600000000004                 2.02258      15.292300000000001
   397   3                 3.68682      2.0623200000000002      15.342799999999999
   398   3      4.9918500000000003      2.7417600000000002                 15.8376
   399   4     -4.8087499999999981      8.4383800000000004      15.311599999999999
   400   3      8.9304899999999989                 7.80905      15.404200000000001
   401   3      2.1813400000000009      7.7033299999999993                 13.5153
   402   4      3.5079600000000011      9.5305599999999977      28.146500000000003
   403   3      3.0838899999999998      8.9352900000000002      28.882000000000001
   404   3      3.0200600000000031      10.343500000000001                 28.2347
   405   4     -5.5133199999999958      11.193599999999998      23.119199999999999
   406   3     -5.2373099999999972      10.518599999999999      22.506799999999998
   407   3      8.0600200000000015      10.876099999999997                 23.4863
   408   4      4.9137899999999988      6.3316999999999988      21.793800000000001
   409   3      4.7284299999999986       5.645109999999999      21.131699999999999
   410   3      4.0016200000000008      6.7637600000000004      22.019600000000001
   411   4     -2.3263699999999998      9.9439699999999984                 15.2903
   412   3                -1.82972                 10.8026                 15.1554
   413   3     0.95622300000000005       9.558349999999999                 20.7227
   414   4      7.1797983999999957      1.8388181786051121      23.216100000000001
   415   3                 7.11191                 2.50963                 22.4498
   416   3      6.3426500000000008                  2.0909      23.655899999999999
   417   4      6.5579799999999988      8.2003599999999981      20.523800000000001
   418   3       5.855120000000003      7.7526199999999994                 21.0151
   419   3      6.2098699999999996      8.1810299999999998                 19.5977
   420   4      -3.691759999999999      11.303899999999999      13.145400000000002
   421   3                 10.7781      4.9384699999999997                 13.0441
   422   3      7.1186699999999998      3.4855299999999998                  13.212
   423   4      8.2051800000000021      6.1485900000000004      27.883800000000001
   424   3      8.1861200000000025      6.9200999999999988      27.312499999999996
   425   3       9.130510000000001      5.8874299999999993      28.128499999999999
   426   4      2.6090799999999961       1.302018178605113      23.741399999999999
   427   3      3.4994799999999961      1.1663181786051131      24.142299999999999
   428   3       2.398389999999996     0.48441817860511199      23.232900000000001
   429   4      10.048729999999995       1.703718178605113      20.614599999999999
   430   3      10.086529999999994     0.78551817860511197      20.281199999999998
   431   3      10.930999999999999       2.077199999999999      20.175799999999999
   432   4    -0.23213400000000001                   3.331      14.735099999999999
   433   3   -0.055008200000000999      8.1718899999999977      14.838699999999999
   434   3                -1.10867      3.8132100000000002                 14.5284
   435   4                 10.1823      5.7045699999999986      19.328099999999999
   436   3      10.494999999999999      5.5317599999999993                 20.2608
   437   3      10.965700000000002      5.3528200000000004      18.821400000000001
   438   4     -1.1603000000000001      12.315799999999999                 14.5375
   439   3                0.405972                 11.0839                 15.0183
   440   3     -1.4622299999999999      12.330500000000001      13.642199999999999
   441   4      10.799300000000002      4.5540000000000003      21.794499999999999
   442   3      10.421200000000002      4.5014200000000004      22.661200000000001
   443   3                -1.24709      7.8795699999999993      27.069400000000002
   444   4     -3.4801999999999991      6.4530399999999988      24.468299999999999
   445   3                 10.2439      5.8578400000000004      24.309799999999999
   446   3      -2.711799999999998      5.9185800000000004      24.572299999999998
   447   4     0.26353500000000002                 1.94953      19.959199999999999
   448   3                 1.00732      2.5347599999999999      19.739799999999999
   449   3     0.48410999999999799       1.045518178605112      20.289200000000001
   450   4      13.438809999999997     0.64131817860511298      23.700399999999998
   451   3    -0.50650000000000395       1.443418178605111      23.889299999999999
   452   3      12.466749999999994      1.0297181786051111      23.737200000000001
   453   4      1.3829300000000011      11.179199999999998      15.267100000000001
   454   3                 1.99325                 12.1563      18.298500000000001
   455   3       1.900370000000001                 11.3714      14.394299999999999
   456   4      1.9970600000000001      8.8391699999999993      16.585799999999999
   457   3      2.9105200000000009      8.6464599999999994      16.739799999999999
   458   3      1.9903200000000001      9.7993299999999994                 16.2959
   459   4      8.1419149999999956     0.56221817860511303      17.322700000000001
   460   3      7.2810180999999963     0.53451817860511297      17.767399999999999
   461   3     0.77805200000000097      12.387999999999998      16.687899999999999
   462   4      2.8201100000000001      7.3249899999999988                   12.92
   463   3      5.0982200000000004      8.9737599999999986      14.457100000000001
   464   3       3.538050000000001                 10.5259                 11.9956
   465   4      2.6086900000000011      4.5164699999999991                 13.2088
   466   3      1.7230800000000011      4.5938400000000001                 12.8512
   467   3      2.5427600000000008      4.3596299999999992      14.184600000000001
   468   4      7.3110000000000008      7.7996199999999991      12.246700000000001
   469   3      6.9149099999999999       7.046479999999999      12.747299999999999
   470   3      8.2892299999999999      7.7780300000000002                 12.2424
   471   4      2.5552300000000008      6.3072100000000004      18.599399999999999
   472   3      2.7568600000000001      6.7757499999999986      17.785900000000002
   473   3      1.9473000000000009                 5.59537      18.322900000000001
   474   4     -6.3626199999999971      11.982599999999998                 19.9114
   475   3     -5.5312299999999999      11.604599999999998                  20.215
   476   3      7.4142299999999999                  11.605                 20.4404
   477   4                 6.77515                 3.09015                 12.4114
   478   3                 9.65503       7.601659999999999                 19.1004
   479   3      6.0685700000000002       2.416539999999999      12.634400000000001
   480   4     -4.4831200000000004      7.9968899999999987      12.681800000000001
   481   3     -3.9055999999999971      8.6170200000000001                 12.2439
   482   3     -4.5499999999999998      8.2428599999999985      13.623200000000001
   483   2               -0.714167      9.5245499999999979                 11.7631
   484   4      -1.558179999999999      8.3825000000000003                 12.0909
   485   4    -0.58565299999999998      10.344899999999999      12.667299999999999
   486   3      4.8048835064276441    -0.50943186593790202      12.075119934280957
