data.lmp

485 	 atoms 
4  atom types
0.0      14.478999999999999  xlo xhi
1.9401860000000006    14.479  ylo yhi
0.0      44.457999999999998  zlo zhi
    -7.2394999999999952                       0                       0  xy xz yz


Atoms 

     1   1 -9.9999999999999995e-07                1.671619                       0
     2   1     -5.7919999999999998      11.702999999999999                       0
     3   1                  -1.448      4.1799999999999997                       0
     4   1      7.2399990000000001      9.1959990000000005                       0
     5   1      2.8959999999999999      6.6879999999999997                       0
     6   1      4.3440000000000003      9.1959990000000005                       0
     7   1      4.3439990000000002      4.1799999999999997                       0
     8   1                   1.448      9.1959990000000005                       0
     9   1      7.2399990000000001      4.1799999999999997                       0
    10   1                  -1.448      9.1959990000000005                       0
    11   1                  10.135      4.1799999999999997                       0
    12   1     -4.3439990000000002      9.1959990000000005                       0
    13   1     -2.8959999999999999      6.6879999999999997                       0
    14   1      8.6880000000000006      6.6879999999999997                       0
    15   1                       0      6.6879999999999997                       0
    16   1      5.7919999999999998      6.6879999999999997                       0
    17   1                  11.583                1.671619                       0
    18   1     -2.8959999999999999      11.702999999999999                       0
    19   1                   1.448      4.1799999999999997                       0
    20   1      5.7919989999999997      11.702999999999999                       0
    21   1      5.7919999999999998                1.671619                       0
    22   1      2.8959999999999999                1.671619                       0
    23   1                       0      11.702999999999999                       0
    24   1      8.6880000000000006                1.671619                       0
    25   1      2.8959990000000002      11.702999999999999                       0
    26   1                       0                   5.016      2.3639999999999999
    27   1      8.6879989999999996                   5.016      2.3639999999999999
    28   1                  11.583                   5.016      2.3639999999999999
    29   1     -2.8959999999999999                  10.032      2.3639999999999999
    30   1      5.7919999999999998                   5.016      2.3639999999999999
    31   1                  10.135                   7.524      2.3639999999999999
    32   1                  10.135                   2.508      2.3639999999999999
    33   1     -4.3434999999999997      12.538798999999999      2.3639999999999999
    34   1                  -1.448                   7.524      2.3639999999999999
    35   1      7.2400000000000002                   2.508      2.3639999999999999
    36   1      7.2394999999999996      12.538798999999999      2.3639999999999999
    37   1      5.7919999999999998                  10.032      2.3639999999999999
    38   1      2.8959999999999999                  10.032      2.3639999999999999
    39   1      2.8959999999999999                   5.016      2.3639999999999999
    40   1      7.2399990000000001                   7.524      2.3639999999999999
    41   1      4.3439990000000002                   2.508      2.3639999999999999
    42   1                 -1.4475      12.538798999999999      2.3639999999999999
    43   1      1.4484999999999999      12.538798999999999      2.3639999999999999
    44   1      4.3440000000000003                   7.524      2.3639999999999999
    45   1      4.3434999999999997      12.538798999999999      2.3639999999999999
    46   1                   1.448                   2.508      2.3639999999999999
    47   1                       0                  10.032      2.3639999999999999
    48   1                   1.448                   7.524      2.3639999999999999
    49   1      8.6869990000000001                  10.032      2.3639999999999999
    50   1               13.030999                   2.508      2.3639999999999999
    51   1      7.2891500000000002      5.9268999999999998      4.7856899999999998
    52   1     -4.2212399999999999               10.746299      4.8134699999999997
    53   1      7.4734990000000003                 10.9682      4.6520700000000001
    54   1      3.0520010000000002      8.3994890000000009      4.7286700000000002
    55   1      8.8135600000000007      8.3428590000000007      4.7950499999999998
    56   1      1.6012900000000001               10.855699      4.6985099999999997
    57   1     -2.6469100000000001                 8.46326      4.8022799999999997
    58   1                 5.87554      8.5393989999999995      4.6190899999999999
    59   1      4.4401489999999999                 10.9856      4.7050799999999997
    60   1                0.119505      8.3263189999999998      4.8397490000000003
    61   1      10.255000000000001      6.0252699999999999      4.7763299999999997
    62   1     -1.3436900000000001               10.844199      4.7216500000000003
    63   1      4.4173689999999999      5.8848599999999998      4.7681800000000001
    64   1                10.23963                 0.91052      4.7725799999999996
    65   1      1.5905499999999999     0.94401900000000005                  4.7012
    66   1      3.1005199999999999      3.3632900000000001      4.8067789999999997
    67   1      1.4752099999999999      5.9134399999999996      4.8305100000000003
    68   1      4.3991699999999998     0.75041899999999995      4.7050099999999997
    69   1     0.16392300000000001      3.3717600000000001      4.7709999999999999
    70   1      7.4039400000000004     0.99871900000000002      4.8444000000000003
    71   1     -1.3792199999999999      5.9864499999999996      4.7550299999999996
    72   1      8.6773500000000006      3.2664900000000001      4.5941200000000002
    73   1      5.7543100000000003      3.4147400000000001                 4.82552
    74   1               11.595699                 3.24444      4.6013200000000003
    75   1                13.07048     0.92181900000000006      4.6332800000000001
    76   1      6.0253899999999998      11.768999000000001      7.0033099999999999
    77   1               -1.382201      4.1840999999999999      6.8319099999999997
    78   1      7.3082900000000004      9.1624689999999998      7.1750999999999996
    79   1      11.667509000000001                1.756419      7.0660299999999996
    80   1      3.0531600000000001      6.7241200000000001      7.0235099999999999
    81   1      8.8503209999999992                1.832419      7.0629499999999998
    82   1     -2.7390599999999998                 11.7636      7.0320299999999998
    83   1      5.8455909999999998      1.6524179999999999      7.1444799999999997
    84   1     0.18723400000000001      11.706599000000001      7.1862000000000004
    85   1      3.1173099999999998      1.6668190000000001      7.0450999999999997
    86   1                 3.06182               11.859999      7.1812399999999998
    87   1    0.089311000000000001                1.674118      7.1471400000000003
    88   1     -5.6090799999999996                 11.6944      7.0270599999999996
    89   1                 1.56114      4.1542500000000002      7.1701189999999997
    90   1      4.4470900000000002      9.3966499999999993      6.9715199999999999
    91   1                0.150256      6.8172499999999996      7.1073789999999999
    92   1      1.5863799999999999      9.2105700000000006      7.1193400000000002
    93   1      4.5632799999999998      4.2502599999999999      7.0956700000000001
    94   1     -2.6886899999999998                6.742909      7.1731699999999998
    95   1      10.303800000000001      4.2536399999999999      7.0402500000000003
    96   1     -1.3725499999999999      9.3310890000000004      7.2617399999999996
    97   1                 7.47865                 4.32796      7.1956199999999999
    98   1      8.7325199999999992      6.6194699999999997      7.3106499999999999
    99   1      5.9251290000000001      6.8810500000000001      7.1056299999999997
   100   1     -4.1868999999999996      9.0604600000000008      7.1111199999999997
   101   1     -2.5983010000000002      5.0068200000000003      9.5996500000000005
   102   1    0.092383000000000007               10.225199      9.4749700000000008
   103   1      1.6378999999999999                 2.41919      9.5050699999999999
   104   1      5.7951199999999998      5.0898599999999998      9.3965200000000006
   105   1      3.0104199999999999               10.230499      9.6756700000000002
   106   1    0.035400000000000001                0.160718      9.6242400000000004
   107   1                0.191523      5.0883190000000003      9.5032899999999998
   108   1                 3.02068      5.0321990000000003      9.5061889999999991
   109   1      2.9256500000000001     0.16331899999999999      9.6603589999999997
   110   1                5.897551                0.046119      9.4791899999999991
   111   1                 10.2851      2.6835800000000001      9.3110599999999994
   112   1      8.9479900000000008      5.0230699999999997      9.6447900000000004
   113   1                 1.56429      7.3887400000000003      9.4004899999999996
   114   1      8.6959800000000005     0.26581900000000003      9.4176800000000007
   115   1     -5.7535610000000004      10.262700000000001      9.3483900000000002
   116   1               -4.259099      7.4804899999999996      9.6788799999999995
   117   1                 7.28348      2.7328999999999999                 9.45608
   118   1                11.60187     0.19871800000000001      9.4610099999999999
   119   1      7.4640789999999999      7.7249800000000004      9.6037300000000005
   120   1     -1.3603099999999999      7.6327499999999997      9.8146100000000001
   121   1     -1.3023009999999999      2.7001499999999998      9.2030100000000008
   122   1      4.4307800000000004      7.5967500000000001      9.2859200000000008
   123   1      4.4120900000000001      2.5648900000000001      9.5624400000000005
   124   1                -2.99796                 10.1707                 9.30701
   125   1      5.8079900000000002               10.133799      9.2509099999999993
   126   4                 6.45282      3.1743100000000002      15.505800000000001
   127   3      6.3559190000000001                 4.08683               15.071199
   128   3      7.3911199999999999      3.1362299999999999                 15.5685
   129   4      4.7823099999999998      5.9566100000000004      25.739398999999999
   130   3      5.4743700000000004      5.6891800000000003      26.377397999999999
   131   3      4.3793100000000003      6.7917800000000002      26.025397999999999
   132   4      6.1940600000000003      9.4736700000000003      15.373398999999999
   133   3      6.0746799999999999                 10.4177                 15.2981
   134   3      6.1872400000000001      9.4164600000000007      16.358101000000001
   135   4                 5.71835                 1.97461                 12.2531
   136   3      5.5224799999999998      1.0337179999999999               12.076499
   137   3      6.6594239999999996      2.0347189999999999      12.426299999999999
   138   4      3.7259799999999998      3.3175300000000001               13.435599
   139   3                  4.4836                  2.7359               13.299999
   140   3      3.4321899999999999      3.2794500000000002                 14.3474
   141   4      9.8711099999999998     0.43511899999999998      28.435798999999999
   142   3      9.0211000000000006     0.35131800000000002                 27.9237
   143   3                 9.79148    0.070720000000000005      29.328800000000001
   144   4     -4.8375700000000004               11.755799      25.324397999999999
   145   3     -4.5785799999999997                 10.8893      24.924697999999999
   146   3     -4.8099600000000002      12.308400000000001      24.481598000000002
   147   4     -2.6092499999999998      9.1958789999999997      22.597097000000002
   148   3     -2.6743000000000001      10.138799000000001      22.298100000000002
   149   3                -1.90557      9.2269590000000008      23.249200999999999
   150   4      4.5912699999999997      2.6974300000000002               22.016499
   151   3      5.3738000000000001                  2.5909      21.421700000000001
   152   3      4.8332699999999997      2.0807099999999998      22.777097999999999
   153   4      6.4029999999999996      2.2372399999999999               27.440199
   154   3      7.0465910000000003      2.0634190000000001      26.780598000000001
   155   3      5.6335199999999999      1.7846299999999999      27.067699000000001
   156   4   -0.026658999999999999      9.3799399999999995      16.534200999999999
   157   3                0.472584      9.5398990000000001      15.704198999999999
   158   3     0.56820099999999996      8.7893500000000007      17.110399000000001
   159   4      3.9228100000000001               11.937899      26.392099000000002
   160   3      4.8807900000000002      11.821498999999999      26.469000000000001
   161   3      3.4794100000000001      12.128598999999999      27.233198000000002
   162   4      3.9856699999999998      4.3588089999999999      17.941700000000001
   163   3      4.4851799999999997      3.6015100000000002      17.546496999999999
   164   3                 3.40144      3.9326099999999999      18.609998999999998
   165   4                 2.58168                 3.45052      20.138901000000001
   166   3                 1.69411      3.5334699999999999      20.602599999999999
   167   3      3.2652999999999999      3.1642100000000002      20.840699999999998
   168   4      4.8849099999999996      8.2530199999999994               27.555899
   169   3      5.4705399999999997      8.9757390000000008      27.161898000000001
   170   3      5.4188000000000001      7.8582000000000001                 28.2547
   171   4      6.4886689999999998                 10.0754               12.356999
   172   3      5.5390699999999997                 10.1623                 12.1271
   173   3      7.0479789999999998      10.081099999999999      11.550000000000001
   174   4               -4.663049      8.2685289999999991               17.046999
   175   3      9.9051899999999993      7.7770700000000001      17.882698000000001
   176   3     -3.8637009999999998      8.0093499999999995               16.514999
   177   4    -0.23544799999999999      4.2146299999999997      15.992599999999999
   178   3     0.60228099999999996      3.6812299999999998                 15.7384
   179   3    -0.93449899999999997      3.6513399999999998               15.667899
   180   4   -0.031761999999999999      11.765299000000001      24.000499999999999
   181   3    -0.69216900000000003               12.415099      23.662497999999999
   182   3                0.504965      12.130699999999999               24.779999
   183   4     -1.9927699999999999      6.4212889999999998      25.050899999999999
   184   3     -1.0377400000000001      6.6147989999999997      24.980399999999999
   185   3                -2.41906      6.3780999999999999      24.116897999999999
   186   4      4.4895399999999999    0.056319000000000001               17.472797
   187   3      5.3653500000000003                0.267619               17.851599
   188   3      4.5266099999999998                0.363118      16.517596999999999
   189   4      3.2014300000000002      12.441700000000001      14.485099999999999
   190   3      4.0627399999999998      12.526598999999999               14.976899
   191   3                 3.41473      12.153798999999999               13.563399
   192   4     0.15359500000000001      6.7681089999999999               14.990499
   193   3               -0.192492      6.3976899999999999      14.164699000000001
   194   3    -0.13403599999999999      6.1042100000000001      15.616899999999999
   195   4     -3.3461099999999999                 10.3101      18.954999999999998
   196   3     -3.6057299999999999      10.792999999999999      18.142599000000001
   197   3                -3.06881      11.007099999999999      19.548500000000001
   198   4      1.8391999999999999      8.6499400000000009      28.211500000000001
   199   3      2.7946900000000001      8.7959300000000002      28.087499999999999
   200   3                 1.65665      8.5528300000000002      29.174800999999999
   201   4      4.4725000000000001                  11.228      22.437598999999999
   202   3      5.1363899999999996                 11.8444                 22.7897
   203   3      3.5878000000000001                 11.6471               22.588898
   204   4      8.9992599999999996                 2.67679                 18.5989
   205   3      9.0518699999999992                 2.24322      17.702000000000002
   206   3                 9.88551      2.5132599999999998      19.015599999999999
   207   4               11.405721      1.7379180000000001               19.915001
   208   3      11.400518999999999      1.9420200000000001      20.918597999999999
   209   3                 11.9541                 2.46461      19.522397999999999
   210   4      4.6119700000000003      8.9594100000000001      24.045698000000002
   211   3      4.7068500000000002      9.7577400000000001      23.487400000000001
   212   3      3.8966310000000002      8.4200490000000006      23.658799999999999
   213   4    -0.35730099999999998      1.9190499999999999      27.900600000000001
   214   3      13.211399999999999                 2.15795                 27.7822
   215   3    0.053885000000000002      2.7918699999999999      27.969398000000002
   216   4                 11.6831      2.4240599999999999                 12.8809
   217   3      10.799398999999999                 2.51674                 12.6182
   218   3                 11.6836      2.5966999999999998               13.886099
   219   4     -1.8999299999999999      8.2688900000000007      17.877300000000002
   220   3     -2.6573699999999998      8.9238499999999998               17.983297
   221   3     -1.2698199999999999      8.7219300000000004      17.184601000000001
   222   4               -3.259201      5.9398400000000002      22.501100999999998
   223   3      10.237299999999999      5.8577190000000003               22.613398
   224   3     -2.8927010000000002      6.3435199999999998      21.693498999999999
   225   4      8.6061910000000008                1.869818               13.142999
   226   3      9.0019100000000005                1.014818      12.797798999999999
   227   3      8.4711400000000001                1.725419      14.108499999999999
   228   4               10.637641      1.5880179999999999      24.606999999999999
   229   3      10.842639999999999     0.62921899999999997      24.870899000000001
   230   3                 10.8048                 1.97879      25.464897000000001
   231   4                -1.82718                 11.6515      27.458300000000001
   232   3     -2.0770900000000001      11.492198999999999                 28.3706
   233   3     -1.9253800000000001               10.820599      26.970998999999999
   234   4      8.3638399999999997      5.3533999999999997      23.280598000000001
   235   3      7.8356700000000004                 5.86761      22.684197999999999
   236   3      8.0944299999999991      5.7358589999999996      24.097898000000001
   237   4                7.116835    0.090518000000000001      20.305098000000001
   238   3     0.72100799999999998      12.271998999999999      20.759398999999998
   239   3    0.039088999999999999      12.438898999999999      19.275497000000001
   240   4      5.5906310000000001      5.0680290000000001      11.711899000000001
   241   3      4.9681300000000004      4.3078200000000004                 12.0816
   242   3      5.5800299999999998      5.7085800000000004               12.435599
   243   4    -0.93303999999999998                 11.4899               12.279299
   244   3                0.023233      11.453398999999999      12.269299999999999
   245   3                -1.25607                 11.7156      13.161199999999999
   246   4                13.78265     0.65611900000000001               12.736699
   247   3      6.4073799999999999      12.383298999999999                 12.2524
   248   3                12.87016      1.1021179999999999      12.583500000000001
   249   4               -0.011799      3.5658099999999999      20.953800000000001
   250   3               -0.173678      4.1513999999999998      21.728999999999999
   251   3    -0.53279699999999997      3.9507599999999998      20.156300000000002
   252   4      3.8549799999999999      8.1297899999999998                 11.5311
   253   3      4.4690690000000002      8.1205200000000008      12.320199000000001
   254   3      2.9470999999999998      8.0023499999999999                 11.8506
   255   4      5.3398399999999997      6.4029990000000003      18.981501000000002
   256   3      4.8541889999999999      5.5818899999999996               18.665899
   257   3      6.0661009999999997      6.0180499999999997                 19.5044
   258   4    -0.27277000000000001                1.028419      17.319099000000001
   259   3               13.455831     0.90681800000000001      17.906600999999998
   260   3     0.47887999999999997     0.83201800000000004      17.886800999999998
   261   4      9.7685700000000004      4.9368699999999999      16.325299999999999
   262   3      10.374700000000001      5.2826000000000004               17.019098
   263   3      8.8741599999999998                5.143459      16.594100999999998
   264   4      7.0770989999999996      2.5725899999999999               21.171101
   265   3      7.1238510000000002                1.588619                 20.9238
   266   3      7.3724889999999998      2.5880299999999998               22.093798
   267   4      10.670999999999999      5.2575099999999999      26.742298000000002
   268   3     -3.4195009999999999      5.9543999999999997      27.250298999999998
   269   3               11.349199      5.3905200000000004      26.036097999999999
   270   4      6.2784500000000003      9.0421600000000009               18.430899
   271   3      5.7155399999999998      8.2143300000000004      18.498798000000001
   272   3      7.1242190000000001      8.8234100000000009      18.767399000000001
   273   4      2.5329299999999999      6.0556890000000001      16.124701000000002
   274   3      2.5919599999999998      5.1701600000000001                 16.3736
   275   3      1.8299799999999999      6.1221500000000004      15.505800000000001
   276   4     -1.3353010000000001      3.9321899999999999      18.824100000000001
   277   3     -1.9014009999999999      4.7550299999999996      18.721001000000001
   278   3    -0.96071499999999999      3.8265799999999999               17.959101
   279   4     0.52400999999999998      6.9511000000000003      26.569299999999998
   280   3     0.65018100000000001      6.0934100000000004      27.028199999999998
   281   3                 1.03538      7.6546500000000002      27.102298999999999
   282   4      8.0794700000000006      2.5144500000000001      24.031199000000001
   283   3      8.9292200000000008      2.0573399999999999      24.267499999999998
   284   3      8.2246199999999998      3.4746199999999998      23.813397999999999
   285   4      11.403499999999999      2.5600399999999999      27.288398999999998
   286   3                 11.1098      3.4847800000000002      27.313600999999998
   287   3                10.60718      2.0319189999999998      27.606598000000002
   288   4      7.6264900000000004               10.130599               22.166998
   289   3      7.3099699999999999      10.954700000000001               22.654999
   290   3      8.5510889999999993               10.080199      22.594398000000002
   291   4                0.139381     0.41901899999999997      25.575597999999999
   292   3   -0.022460000000000001     0.94671899999999998      26.413298000000001
   293   3     -6.3614800000000002                 12.3049      25.714797999999998
   294   4      1.9334899999999999                 10.4549      25.559398999999999
   295   3      2.8256399999999999      10.879599000000001                 25.7654
   296   3      2.2026500000000002                9.574999      25.366699000000001
   297   4      6.6756500000000001      4.9921899999999999      27.265899999999998
   298   3      6.3108599999999999                 5.11998      28.064098000000001
   299   3      6.6959200000000001      4.0059100000000001      27.199998999999998
   300   4      8.4576499999999992                 6.75901      25.797298000000001
   301   3      9.2537400000000005      6.2569689999999998      26.178999000000001
   302   3      7.6924599999999996      6.2448199999999998      26.098600000000001
   303   4      8.1775800000000007      7.7585800000000003      14.797800000000001
   304   3      8.7927400000000002      7.7095390000000004                 15.5289
   305   3      7.4113790000000002      8.3364600000000006      15.018599999999999
   306   4      2.5205299999999999     0.49902000000000002      22.783097999999999
   307   3      2.3204799999999999                1.403319               23.023899
   308   3                 1.82995     0.29701899999999998      22.061198999999998
   309   4                 1.73709                5.253349               12.962099
   310   3     0.91474599999999995                4.731719               12.766299
   311   3                  2.5402      4.7474790000000002      12.810898999999999
   312   4      9.6625390000000007      6.9784800000000002      19.472798999999998
   313   3      8.8525600000000004      6.4876300000000002      19.613001000000001
   314   3      9.5140499999999992      7.7940100000000001                 20.0487
   315   4      2.9861800000000001      10.470098999999999      18.256001000000001
   316   3      3.4777399999999998      10.840199999999999               19.026501
   317   3      2.6892999999999998      9.5969599999999993      18.588799000000002
   318   4     0.65027800000000002      12.296200000000001      26.537700999999998
   319   3                 1.13076      11.461399999999999      26.210598000000001
   320   3    -0.21343799999999999                 12.0185      26.921800999999999
   321   4      11.593999999999999                 2.85432      15.710998999999999
   322   3                 11.3369      2.0331800000000002      16.268198000000002
   323   3                 10.8714                 3.44787      15.756899000000001
   324   4     -2.6274700000000002      11.721799000000001                 21.1721
   325   3                -1.66777               11.936399      20.948499999999999
   326   3                -3.04914                 12.4299      21.592898999999999
   327   4      1.4637199999999999      7.8036789999999998      18.091298999999999
   328   3                 1.21411                 7.52494      19.079097999999998
   329   3                 2.01573      7.1570999999999998                 17.5947
   330   4     0.27343000000000001      3.2684700000000002      24.614398999999999
   331   3    0.039045000000000003      2.4632700000000001      24.993998000000001
   332   3    -0.59046500000000002      3.6812399999999998      24.321898999999998
   333   4                 0.11488      1.0453190000000001      20.736999999999998
   334   3      13.902229999999999     0.65601900000000002      20.165199000000001
   335   3    0.048098000000000002      2.0309900000000001      20.788599000000001
   336   4     -1.6639900000000001      7.5356399999999999                 20.6768
   337   3                 -1.9291      8.2363300000000006      21.291499999999999
   338   3                -1.61317      7.9402900000000001                 19.7819
   339   4      10.598800000000001                 5.78871      13.808498999999999
   340   3               10.208599      5.4179399999999998      14.631099000000001
   341   3      9.9001199999999994      5.5051399999999999                 13.1983
   342   4      5.5623500000000003                1.402919               24.102501
   343   3      6.4060899999999998                 1.82315               24.185101
   344   3      5.0657009999999998      1.2320180000000001      24.948398999999998
   345   4                4.453811      5.2855400000000001               22.997601
   346   3      4.8175600000000003      5.3899699999999999      23.905701000000001
   347   3      4.7976390000000002      4.4737400000000003      22.599599999999999
   348   4                 1.86395      7.9814999999999996               24.313499
   349   3                 1.48112      7.6012899999999997                 25.1038
   350   3      1.1018300000000001      8.4943589999999993      24.067499000000002
   351   4      1.7678700000000001               11.618399      22.034800000000001
   352   3      2.0514600000000001               10.827099      21.599001000000001
   353   3                 1.15364      11.507699000000001      22.815798000000001
   354   4      7.7777799999999999      4.8122800000000003                 19.6677
   355   3      8.1568000000000005      4.1081300000000001      19.067900000000002
   356   3      7.3780190000000001      4.2202599999999997      20.385698000000001
   357   4      8.5382390000000008      9.4329699999999992               19.553801
   358   3     -5.1091100000000003      9.9007989999999992      19.422498999999998
   359   3      8.2219200000000008      9.6528299999999998      20.502099999999999
   360   4                -2.01945      8.8862100000000002      11.892899999999999
   361   3     -3.0074000000000001      8.7481000000000009      12.051500000000001
   362   3     -1.7589699999999999      9.8211499999999994      12.034898999999999
   363   4      1.2430399999999999               10.353099               14.319699
   364   3      1.9406300000000001                  10.975      14.508900000000001
   365   3                 1.62381      9.6177089999999996      13.864699999999999
   366   4    -0.65647900000000003                 8.96096      24.342099999999999
   367   3     -1.2992600000000001      8.7959800000000001      25.080798999999999
   368   3    -0.39748499999999998      9.9042200000000005      24.405398999999999
   369   4                 7.07308      7.3535899999999996      22.046099000000002
   370   3                 7.28925      8.3006499999999992      22.208597000000001
   371   3      6.1245099999999999      7.4519799999999998      21.698298999999999
   372   4     -2.9716990000000001      5.8000299999999996      18.030100000000001
   373   3      10.969298999999999      6.0692899999999996      18.781400999999999
   374   3                -2.53003      6.6424799999999999                 17.7288
   375   4               -4.960331      9.0549499999999998               24.085697
   376   3     -4.1843009999999996      8.8724399999999992               23.505699
   377   3      8.9938599999999997      8.2915399999999995               24.369301
   378   4     -2.5807500000000001      9.0621790000000004      26.090796999999998
   379   3     -3.4721500000000001      8.9098900000000008      25.679600000000001
   380   3     -2.6177800000000002      8.4923400000000004                 26.9238
   381   4      5.9149000000000003               12.042099      14.945099000000001
   382   3                13.43164  0.00081899999999999996      14.187398999999999
   383   3                  13.538    0.032918000000000003      15.692099000000001
   384   4      11.346299999999999      3.0989399999999998      22.272597999999999
   385   3      11.217999000000001      2.6470099999999999      23.151797999999999
   386   3                  11.134      4.0504499999999997               22.313499
   387   4      2.6536900000000001      9.4261389999999992               20.895699
   388   3                 1.82887      8.8286800000000003      20.921496999999999
   389   3      3.3781300000000001      8.7957099999999997                 21.1129
   390   4      2.0137800000000001      2.8435000000000001                 15.5283
   391   3      2.0750199999999999                  2.4472               16.408998
   392   3      1.7259500000000001      2.1861899999999999                   14.83
   393   4                 1.70607                1.351718      13.269698999999999
   394   3                 0.75361      1.0779190000000001               13.051999
   395   3                 1.88283      2.1706099999999999               12.825099
   396   4     -2.2276500000000001                 7.19224      27.873100000000001
   397   3     -2.1508799999999999      7.3911090000000002                 28.8367
   398   3                -1.33622      7.0639900000000004      27.497199999999999
   399   4                 1.39961      8.0119100000000003                 12.5075
   400   3     0.74079899999999999                 7.88565                  11.823
   401   3      1.5334000000000001      7.1049800000000003      12.850398999999999
   402   4      8.3342100000000006      4.5962899999999998                 12.1904
   403   3      7.3522499999999997      4.5858299999999996               12.139199
   404   3      8.6432400000000005                  3.7342                 12.6053
   405   4      5.4937199999999997               11.502499      19.826599000000002
   406   3      5.6514899999999999      10.570399999999999      19.535699999999999
   407   3      5.1793990000000001      11.436299999999999               20.769199
   408   4    -0.74072199999999999                 3.73583      11.976100000000001
   409   3     -1.5634999999999999      3.1673499999999999      12.173598999999999
   410   3     -1.0760400000000001      4.6655300000000004                 12.0389
   411   4      2.3835199999999999                1.505919      17.888999999999999
   412   3      3.2705600000000001                1.112519      17.858000000000001
   413   3                 2.33893      2.0783499999999999      18.669899000000001
   414   4      6.1532400000000003                 2.51709      18.335896999999999
   415   3      7.1312100000000003      2.4597699999999998      18.558900999999999
   416   3      6.2865799999999998      2.8344999999999998               17.342098
   417   4     -5.2196910000000001      10.929399999999999      16.273399000000001
   418   3     -5.8756899999999996                 11.4459                 16.7376
   419   3     -5.2260900000000001      10.056499000000001               16.665098
   420   4      7.1189999999999998      7.5194000000000001                 11.9237
   421   3      7.7316289999999999      6.9934200000000004      12.462400000000001
   422   3      6.8147599999999997      8.3292099999999998                 12.3894
   423   4      4.0376200000000004                1.248319      26.033000999999999
   424   3      3.4957400000000001                0.446019      25.957298000000002
   425   3      3.4770500000000002      2.0631300000000001      26.033397999999998
   426   4                 1.24438                 4.48895               27.931801
   427   3      1.7338499999999999      4.1918300000000004      27.122101000000001
   428   3                 1.91123                 4.51241      28.589397000000002
   429   4                -2.41683      10.723800000000001      14.545500000000001
   430   3     -2.3293900000000001      9.7735690000000002      14.741599000000001
   431   3     -2.5218600000000002      11.235300000000001      15.375799000000001
   432   4                -2.57301      8.0010600000000007                   14.98
   433   3     -3.1747000000000001                 7.58934      14.355499999999999
   434   3                -1.64943                 7.64053               14.735199
   435   4     0.74487199999999998      6.9971399999999999               20.744799
   436   3    -0.22354599999999999      6.9577999999999998               20.828899
   437   3      1.2558400000000001      6.5259299999999998      21.489398999999999
   438   4               -5.631399               11.077299      13.570099000000001
   439   3     -5.3247600000000004      10.977698999999999      14.481699000000001
   440   3      7.9139499999999998               10.750199      13.591699999999999
   441   4                0.398534                 11.9962      17.903998999999999
   442   3    0.047899999999999998               11.139999                 17.4876
   443   3      1.3299700000000001      11.777799999999999               18.145699
   444   4      4.6320100000000002      7.3165100000000001      14.450998999999999
   445   3      4.9431799999999999      8.2019889999999993                 14.9026
   446   3      4.0570899999999996      6.8048400000000004                 15.0479
   447   4     -3.3723399999999999      12.506698999999999               12.699199
   448   3      2.9496099999999998     0.30881900000000001      12.928900000000001
   449   3     -3.4969299999999999                 11.5822                 12.9648
   450   4                 1.81168      5.6564300000000003      22.700399000000001
   451   3      1.8559300000000001      6.4778390000000003      23.248999000000001
   452   3      2.7502900000000001                 5.33474               22.737299
   453   4      11.232969000000001     0.71471899999999999                 17.4114
   454   3                11.16803     0.88191799999999998               18.439301
   455   3      4.2279299999999997      12.319900000000001                 17.3855
   456   4      4.3580300000000003      7.3782199999999998      21.246901000000001
   457   3      4.4459799999999996                 6.54922                 21.8032
   458   3      4.4560199999999996      6.9698099999999998               20.307699
   459   4      6.7553700000000001      12.532999999999999      23.098597999999999
   460   3                14.17887     0.44851999999999997      23.937000000000001
   461   3    -0.19761999999999999                 0.49412      22.341698000000001
   462   4      6.2958210000000001      5.4236490000000002                  14.379
   463   3      7.0615300000000003      6.0521399999999996      14.460100000000001
   464   3      5.4852999999999996      6.0508889999999997                 14.4093
   465   4      7.0380900000000004      9.2888599999999997      25.515398000000001
   466   3      7.2674399999999997      8.3607689999999995      25.659200999999999
   467   3      6.2015399999999996      9.2931699999999999                  25.032
   468   4      4.8351699999999997                1.075218      15.003500000000001
   469   3      5.4896500000000001                1.746618               14.892099
   470   3                 4.59213     0.65571800000000002                 14.1759
   471   4     -1.4253100000000001      6.1043700000000003      12.730499999999999
   472   3     -2.3023009999999999      5.8335900000000001                 13.1113
   473   3                -1.48651      7.0593399999999997      12.509199000000001
   474   4      2.7404099999999998      4.0230899999999998      25.516597999999998
   475   3      3.4761000000000002      4.7082199999999998               25.446299
   476   3                 2.06386      4.2385999999999999      24.839998000000001
   477   4      8.8363600000000009      1.4146179999999999               15.839399
   478   3                  9.4863     0.90391900000000003               15.336999
   479   3      8.3869910000000001     0.66861800000000005      16.342597999999999
   480   4                -4.62826      9.0117499999999993               12.772499
   481   3      9.4236799999999992      8.4735600000000009      13.448798999999999
   482   3     -5.0878199999999998      9.9043899999999994                 12.9245
   483   2      3.3808500000000001      11.697100000000001      11.521100000000001
   484   4      4.1170799999999996      11.311598999999999                 12.4392
   485   4                 2.36511      12.457299000000001      11.646998999999999
