data_1.lmp (written by ASE) 

486 	 atoms 
4  atom types
0.0      14.478999999999999  xlo xhi
1.9401860000000006    14.479  ylo yhi
0.0      44.457999999999998  zlo zhi
    -7.2394999999999952                       0                       0  xy xz yz


Atoms 

     1   1      7.2394999999999996      14.210000000000001                       0
     2   1      8.6869999999999994      11.702999999999999                       0
     3   1      13.031000000000001      4.1799999999999997                       0
     4   1      7.2400000000000002      9.1959999999999997                       0
     5   1      2.8959999999999999      6.6879999999999997                       0
     6   1      4.3440000000000003      9.1959999999999997                       0
     7   1      4.3440000000000003      4.1799999999999997                       0
     8   1                   1.448      9.1959999999999997                       0
     9   1      7.2400000000000002      4.1799999999999997                       0
    10   1                  -1.448      9.1959999999999997                       0
    11   1                  10.135      4.1799999999999997                       0
    12   1                  10.135      9.1959999999999997                       0
    13   1                  11.583      6.6879999999999997                       0
    14   1      8.6880000000000006      6.6879999999999997                       0
    15   1                       0      6.6879999999999997                       0
    16   1      5.7919999999999998      6.6879999999999997                       0
    17   1      4.3434999999999997      14.210000000000001                       0
    18   1     -2.8959999999999999      11.702999999999999                       0
    19   1                   1.448      4.1799999999999997                       0
    20   1      5.7919999999999998      11.702999999999999                       0
    21   1                 -1.4475      14.210000000000001                       0
    22   1     -4.3434999999999997      14.210000000000001                       0
    23   1                       0      11.702999999999999                       0
    24   1      1.4484999999999999      14.210000000000001                       0
    25   1      2.8959999999999999      11.702999999999999                       0
    26   1                       0                   5.016      2.3639999999999999
    27   1      8.6880000000000006                   5.016      2.3639999999999999
    28   1                  11.583                   5.016      2.3639999999999999
    29   1     -2.8959999999999999                  10.032      2.3639999999999999
    30   1      5.7919999999999998                   5.016      2.3639999999999999
    31   1                  10.135                   7.524      2.3639999999999999
    32   1                  10.135                   2.508      2.3639999999999999
    33   1     -4.3434999999999997                 12.5388      2.3639999999999999
    34   1                  -1.448                   7.524      2.3639999999999999
    35   1      7.2400000000000002                   2.508      2.3639999999999999
    36   1      7.2394999999999996                 12.5388      2.3639999999999999
    37   1      5.7919999999999998                  10.032      2.3639999999999999
    38   1      2.8959999999999999                  10.032      2.3639999999999999
    39   1      2.8959999999999999                   5.016      2.3639999999999999
    40   1      7.2400000000000002                   7.524      2.3639999999999999
    41   1      4.3440000000000003                   2.508      2.3639999999999999
    42   1                 -1.4475                 12.5388      2.3639999999999999
    43   1      1.4484999999999999                 12.5388      2.3639999999999999
    44   1      4.3440000000000003                   7.524      2.3639999999999999
    45   1      4.3434999999999997                 12.5388      2.3639999999999999
    46   1                   1.448                   2.508      2.3639999999999999
    47   1  8.3730000000000008e-12                  10.032      2.3639999999999999
    48   1                   1.448                   7.524      2.3639999999999999
    49   1      8.6869999999999994                  10.032      2.3639999999999999
    50   1      13.031000000000001                   2.508      2.3639999999999999
    51   1                 7.11076                 5.86578      4.7538900000000002
    52   1     -4.3529900000000001                 10.8758      4.7260299999999997
    53   1      7.2767799999999996      11.005000000000001      4.6540999999999997
    54   1      3.1150799999999998      8.2650000000000006                 4.82972
    55   1      8.7676800000000004      8.2829499999999996      4.8031100000000002
    56   1                 1.62015                   10.77      4.6904000000000003
    57   1     -2.8607200000000002      8.4143699999999999      4.8628499999999999
    58   1      5.9960199999999997      8.4400899999999996      4.7504499999999998
    59   1                 4.35236                 10.7133      4.7032299999999996
    60   1     0.13980799999999999      8.3822600000000005      4.6278899999999998
    61   1      10.149800000000001      5.9106500000000004      4.8965399999999999
    62   1                -1.35524      10.756399999999999      4.7124199999999998
    63   1                 4.41737      5.8055199999999996      4.7863899999999999
    64   1      2.8000799999999999                 13.4191      4.8454300000000003
    65   1                -5.89879                 13.4238      4.7409400000000002
    66   1      2.8427899999999999      3.4333100000000001                 4.80891
    67   1                 1.59195                  5.8712      4.6416399999999998
    68   1     -2.8289900000000001      13.407500000000001      4.7937500000000002
    69   1   -0.014662100000000001      3.4170799999999999      4.7550299999999996
    70   1               0.0153934                 13.3085      4.7379600000000002
    71   1     -1.4355599999999999      5.8709800000000003      4.7375499999999997
    72   1      8.6395099999999996      3.4001999999999999      4.8022400000000003
    73   1      5.8777900000000001      3.3606199999999999                 4.69672
    74   1      11.507199999999999      3.3427500000000001      4.7022000000000004
    75   1                 5.57158                  13.327      4.7232500000000002
    76   1      5.8105000000000002                  11.756      7.0465600000000004
    77   1                  13.087      4.2865399999999996                 7.20791
    78   1      7.2564500000000001      9.1626899999999996      7.2305000000000001
    79   1      4.3198400000000001      14.283799999999999      7.0815099999999997
    80   1      2.8570799999999998      6.6962700000000002      7.2401600000000004
    81   1      1.4800599999999999                 14.2387      7.0656999999999996
    82   1     -2.9889000000000001                 11.7309      7.0923999999999996
    83   1                 -1.4151                 14.1419      7.2247199999999996
    84   1    0.047679699999999998                 11.7736      7.0322800000000001
    85   1     -4.3556299999999997      14.305099999999999      7.0672199999999998
    86   1      2.9176700000000002                 11.7927      7.0702999999999996
    87   1      7.1786099999999999                 14.2445      7.0070100000000002
    88   1      8.7227099999999993      11.850300000000001      7.0666799999999999
    89   1      1.4161300000000001      4.2352999999999996      7.0982399999999997
    90   1      4.4919200000000004      9.2738800000000001      7.1488399999999999
    91   1                0.112535      6.6971100000000003      7.0810599999999999
    92   1                 1.51234      9.2205200000000005      7.0630699999999997
    93   1      4.6212499999999999      4.0979400000000004      7.0944900000000004
    94   1      11.459199999999999      6.7137099999999998      7.2043499999999998
    95   1      10.083500000000001      4.0297700000000001      7.2042299999999999
    96   1     -1.4045700000000001      9.1706000000000003      7.2352800000000004
    97   1      7.1810999999999998      4.1561700000000004      7.1082200000000002
    98   1      8.6827100000000002      6.6582600000000003      7.2227899999999998
    99   1                 5.84239      6.7919499999999999                 7.22621
   100   1                 10.1745      9.3267500000000005      7.3476100000000004
   101   1      11.556699999999999      4.8203899999999997      9.4094599999999993
   102   1              -0.0230215      9.8134099999999993      9.7133500000000002
   103   1      1.3667199999999999      2.3905799999999999                 9.43126
   104   1      5.8671600000000002      4.9569099999999997      9.4664999999999999
   105   1      2.8433600000000001      9.9451599999999996      9.4377200000000006
   106   1      7.1559999999999997      12.446999999999999      9.5158000000000005
   107   1     0.17228199999999999      4.9579500000000003      9.5909800000000001
   108   1      3.0080800000000001                 4.85623      9.1483799999999995
   109   1                -4.18405                 12.5619      9.4834800000000001
   110   1                -1.41449                 12.3813      9.4204600000000003
   111   1      10.039300000000001                 2.36497      9.6343399999999999
   112   1      8.7227300000000003      4.7119299999999997                 9.64255
   113   1                 1.47034      7.5419200000000002      9.4268000000000001
   114   1                 1.43906                 12.3361      9.3909099999999999
   115   1      8.6652500000000003      10.110300000000001      9.4265500000000007
   116   1                 10.0175      7.2213900000000004      9.6329799999999999
   117   1      7.1936999999999998      2.4291700000000001      9.5549400000000002
   118   1      4.2521399999999998                 12.3157      9.5517099999999999
   119   1      7.1878000000000002      7.2890100000000002      9.5563400000000005
   120   1                -1.43815      7.2969099999999996      9.4485600000000005
   121   1                 12.9907      2.4346399999999999      9.4266500000000004
   122   1      4.3771199999999997      7.4111200000000004      9.6581100000000006
   123   1      4.5308000000000002      2.5536599999999998      9.5772399999999998
   124   1     -2.9404499999999998      9.8213600000000003      9.5643399999999996
   125   1      5.7324799999999998      9.9344400000000004      9.5939200000000007
   126   4      3.6520600000000001      4.1366500000000004      12.379200000000001
   127   3                 4.63558                 4.25969                  12.462
   128   3      3.4835799999999999                 4.87249      11.780099999999999
   129   4                 0.23426      6.9280999999999997      18.947199999999999
   130   3    -0.55854999999999999      6.9251500000000004      18.403300000000002
   131   3                 0.10262      6.1341799999999997                 19.5396
   132   4      8.2940699999999996      5.9626099999999997                 15.0768
   133   3      7.8860099999999997      7.5824800000000003      21.092199999999998
   134   3      7.9798999999999998      7.7503200000000003      27.046800000000001
   135   4      8.8450100000000003      8.6543299999999999                 17.2805
   136   3      9.3760600000000007                 9.08704      17.911999999999999
   137   3      8.6898199999999992      9.3665199999999995                 16.6511
   138   4     -4.9317200000000003      11.617800000000001      16.081900000000001
   139   3     -4.7810300000000003                 12.5214                 15.7569
   140   3     -4.0680100000000001                 11.2254                 16.3047
   141   4     -4.5146899999999999      13.803900000000001      25.319800000000001
   142   3     -4.0862600000000002      13.783099999999999                 24.4678
   143   3      9.8734599999999997      6.1988300000000001                 23.3917
   144   4   -0.094775799999999993      4.8433299999999999                 20.3627
   145   3     0.49260100000000001      4.6297600000000001                 21.1556
   146   3      7.3893500000000003      6.2183200000000003                 15.4093
   147   4      6.0951199999999996                 12.4635                 26.8415
   148   3      5.1792100000000003                  12.388                 26.5123
   149   3      6.5243399999999996                 13.1113                 26.2545
   150   4                0.299479                 10.2096      18.138500000000001
   151   3     0.55583899999999997                 11.1113                 18.4377
   152   3     0.97276499999999999      9.9343500000000002      17.440999999999999
   153   4                 6.40557      5.3474199999999996                 18.0185
   154   3      7.4026699999999996      5.2910599999999999      17.948699999999999
   155   3      6.0928100000000001      5.8106299999999997      17.191500000000001
   156   4      3.2381000000000002      5.6921299999999997                 14.8231
   157   3                 3.23786      5.0919999999999996      14.063000000000001
   158   3      2.6467499999999999                  5.3746                 15.4619
   159   4                  10.378                 7.61069                 15.2332
   160   3      2.3668300000000002      8.6939100000000007      27.520499999999998
   161   3      9.3866999999999994      7.4146299999999998      15.305999999999999
   162   4     0.33910699999999999                 2.29765      12.870699999999999
   163   3     -6.0998400000000004                 14.2248                 13.0093
   164   3                 14.2346      1.8053600000000001      12.338900000000001
   165   4  0.00056860899999999998      2.8863099999999999      18.469000000000001
   166   3      13.958299999999999      2.2571699999999999      19.085899999999999
   167   3    -0.68158200000000002      3.2114500000000001                 17.8734
   168   4     -3.4125899999999998      8.5872899999999994      25.735399999999998
   169   3      10.525600000000001      8.4736100000000008      26.595099999999999
   170   3      5.9565599999999996      4.7263999999999999                 25.3111
   171   4     -1.8018000000000001      5.8336600000000001      22.271100000000001
   172   3     -2.4818500000000001      6.3841400000000004      21.751999999999999
   173   3     -1.4823599999999999      5.2081900000000001      21.562899999999999
   174   4      8.8893799999999992      5.1393800000000001                 18.6404
   175   3      9.2203599999999994      4.2820999999999998      18.788699999999999
   176   3      9.6014099999999996      5.6097999999999999      18.194600000000001
   177   4      5.5153600000000003                  12.878                 16.7791
   178   3      4.6496300000000002                 12.3794                 16.6082
   179   3      6.2094800000000001      12.429500000000001      16.301400000000001
   180   4      7.6426499999999997      4.2702499999999999      24.540600000000001
   181   3      7.4707299999999996                 3.73448                 23.7652
   182   3      8.5607799999999994      4.0856199999999996      24.842400000000001
   183   4      4.6020500000000002      3.0143900000000001                 16.8047
   184   3      5.2597100000000001      3.1711900000000002      16.123200000000001
   185   3      8.8389399999999991      10.914400000000001      23.036999999999999
   186   4    -0.16822300000000001      7.5364100000000001                 15.8454
   187   3    -0.26664100000000002      7.0076200000000002                 15.0686
   188   3    -0.96398300000000003      8.1369199999999999                 15.9351
   189   4                0.230411      9.1017100000000006                 20.6435
   190   3     0.31308399999999997      8.1718799999999998      20.411799999999999
   191   3     0.53342299999999998      9.5768000000000004                 19.8004
   192   4      6.4211900000000002                 11.2682                 20.4846
   193   3      6.6958000000000002                 10.6069      19.771999999999998
   194   3      7.2109399999999999      11.358000000000001      20.964700000000001
   195   4     -7.1844799999999998      14.496499999999999                  25.224
   196   3    -0.18735099999999999      2.8981499999999998      25.340599999999998
   197   3     -6.1959200000000001      14.368499999999999                  25.198
   198   4     -2.1982499999999998      9.8630099999999992      23.286000000000001
   199   3                -1.45021      9.9041599999999992                 23.8904
   200   3     -2.0312600000000001      9.1268600000000006                 22.7179
   201   4     -4.3832300000000002      12.939500000000001      20.344799999999999
   202   3     -4.9363599999999996      12.692299999999999      19.537099999999999
   203   3                -4.00075                 13.8851      20.216100000000001
   204   4     0.56560100000000002      13.107699999999999      16.731300000000001
   205   3     0.33912199999999998                 13.6591                 15.9617
   206   3    -0.25780900000000001                 12.6281      16.938099999999999
   207   4      2.5506500000000001      6.8813000000000004                 22.4146
   208   3                  2.9537                 7.25345      23.222300000000001
   209   3      2.7065299999999999      7.4992400000000004                 21.6327
   210   4      4.8556400000000002      8.5904100000000003                 12.7712
   211   3      5.1569599999999998      8.8308099999999996                 11.8705
   212   3      3.8121700000000001      8.6279800000000009      12.770899999999999
   213   4      4.3755600000000001      11.217000000000001      13.986599999999999
   214   3      3.5608900000000001                 11.0467                 13.4787
   215   3      4.9394499999999999      10.539899999999999                 13.6096
   216   4                 1.95509                 11.0349                 12.7088
   217   3                -2.11633      9.3770199999999999      18.174900000000001
   218   3                 1.93686                 10.9903                 11.7277
   219   4                  10.192      2.5455299999999998      18.504000000000001
   220   3                 11.1684      2.6186600000000002      18.352399999999999
   221   3      10.057600000000001      1.7088000000000001                 18.9819
   222   4     -2.1829299999999998                 11.9276      21.680800000000001
   223   3     -2.1712199999999999      11.002700000000001      22.165299999999998
   224   3                 -2.9373                  12.064      21.126200000000001
   225   4                 11.3903      2.3441399999999999                 21.4053
   226   3      6.7332099999999997      9.5635300000000001      28.976900000000001
   227   3      11.633699999999999      1.8252600000000001      20.591899999999999
   228   4      5.0925399999999996      13.789400000000001                 12.7385
   229   3      4.6387999999999998                 13.7827                 11.8498
   230   3                 4.79169      12.993399999999999      13.270300000000001
   231   4                 12.4964                 4.12819      17.025099999999998
   232   3      10.951599999999999      4.5564900000000002      23.819400000000002
   233   3      12.246700000000001      3.9983300000000002      16.104399999999998
   234   4      3.3519600000000001      8.5713399999999993      20.581099999999999
   235   3      4.0093800000000002      8.9744899999999994      21.242899999999999
   236   3      3.2271299999999998      9.3911700000000007      20.049700000000001
   237   4     -1.1301099999999999      6.9561200000000003                 26.0136
   238   3               -0.806778      6.9965799999999998      25.058399999999999
   239   3                -1.98885      7.4916200000000002      25.975999999999999
   240   4      5.6211900000000004      13.599600000000001      19.369299999999999
   241   3     0.68174800000000002      4.1774500000000003      16.511299999999999
   242   3                 5.45322      13.289099999999999                 18.4238
   243   4    -0.36808999999999997                 12.2394                 20.0044
   244   3    -0.96904199999999996      12.698700000000001      19.349599999999999
   245   3    -0.95345100000000005      12.161300000000001      20.773099999999999
   246   4      8.7438000000000002      5.2950699999999999      12.624599999999999
   247   3      8.4842899999999997                 5.41439                   13.58
   248   3      9.6758600000000001      5.5837899999999996                 12.6465
   249   4      4.5550100000000002      4.8869800000000003      22.340199999999999
   250   3                 3.77047      5.4846899999999996      22.247900000000001
   251   3      4.5673599999999999      4.7807399999999998      23.313300000000002
   252   4      10.549099999999999      4.0683100000000003      24.547499999999999
   253   3      6.4093999999999998      8.3248800000000003      19.551200000000001
   254   3                 10.3528      3.1303399999999999      24.138500000000001
   255   4      5.4615900000000002      8.9070900000000002      22.101600000000001
   256   3                 6.16561      9.5092499999999998      21.855899999999998
   257   3      5.0257899999999998      9.3793900000000008      22.868099999999998
   258   4      3.9344199999999998      7.2826300000000002                 18.2989
   259   3      3.1652900000000002      7.5854600000000003      17.767199999999999
   260   3                 3.80267      7.7124699999999997                 19.1617
   261   4      6.2141799999999998      4.4258199999999999                 12.8339
   262   3      7.0595800000000004      4.4266800000000002      12.300599999999999
   263   3      8.4430300000000003      5.0865900000000002                 15.5124
   264   4                 4.74899      9.8438199999999991      24.666699999999999
   265   3      5.6762100000000002      9.8168100000000003                 24.9785
   266   3                 4.44672                 10.7257      24.915299999999998
   267   4      8.3415599999999994                  12.427      18.478000000000002
   268   3                -6.44278      13.337400000000001                 18.2148
   269   3     -5.6861899999999999                 12.0097      17.725999999999999
   270   4      5.6582400000000002      6.5307300000000001                 15.6836
   271   3      5.3409700000000004      7.4467499999999998                 15.8775
   272   3      4.8826799999999997      5.9828299999999999      15.430400000000001
   273   4     0.29566100000000001      13.379300000000001      12.757899999999999
   274   3     0.76505699999999999                 12.4785                 12.6092
   275   3     0.49888300000000002      13.819900000000001                 11.8817
   276   4     -4.7673199999999998                 14.2752      15.497999999999999
   277   3      3.1547200000000002      2.2292399999999999      16.030100000000001
   278   3      1.5305500000000001                 2.06487                 15.7155
   279   4      1.9039299999999999      4.6506499999999997      24.537099999999999
   280   3      2.0808900000000001      5.5676500000000004      24.519100000000002
   281   3     0.90749299999999999      4.6670800000000003      24.600100000000001
   282   4      7.0205599999999997                 10.5077                 28.8979
   283   3                 3.36212      3.5005799999999998                 19.5215
   284   3                 1.39009      13.370799999999999      27.385000000000002
   285   4     -2.6256699999999999      14.414199999999999      22.986599999999999
   286   3      4.1849100000000004      2.4441899999999999      22.285699999999999
   287   3     -2.3760400000000002                 13.6143      22.612200000000001
   288   4      9.3306900000000006      4.8548299999999998                  27.116
   289   3      8.6750900000000009      5.5485699999999998                  26.936
   290   3      9.9792299999999994      4.9303400000000002      26.386099999999999
   291   4      7.9965799999999998                 3.11164      21.852499999999999
   292   3      8.8429900000000004      3.5403099999999998      21.688800000000001
   293   3      7.4851400000000003      3.2501099999999998      21.053799999999999
   294   4                 1.51183      3.6481400000000002      22.048300000000001
   295   3                  2.3645      3.5860300000000001      21.535900000000002
   296   3      1.8011200000000001                 4.01647      22.967199999999998
   297   4                 3.71861      10.853999999999999      18.890999999999998
   298   3      4.6652100000000001      10.683999999999999                 18.7135
   299   3      3.3155100000000002                 11.2052      18.047899999999998
   300   4     -4.5894399999999997      10.977399999999999      28.854600000000001
   301   3     -4.3313699999999997      11.216200000000001      27.960599999999999
   302   3      8.8927800000000001                 10.9619                 28.8993
   303   4      2.3242699999999998      13.151999999999999      19.913900000000002
   304   3      2.6575099999999998                 12.2349      19.798500000000001
   305   3                 1.33867      13.142099999999999                 20.0901
   306   4      6.6532099999999996      6.8424800000000001      24.102599999999999
   307   3      6.5442400000000003      7.1417400000000004      23.173300000000001
   308   3      6.9019000000000004      5.9235499999999996                 24.1097
   309   4                 9.52562      9.9418299999999995      19.758199999999999
   310   3      9.2524899999999999      9.2970600000000001                 20.4711
   311   3     -3.9706999999999999      9.7229500000000009      19.764500000000002
   312   4     -2.2453400000000001      9.4209300000000002      19.144200000000001
   313   3     0.96317699999999995                 4.11646      12.763299999999999
   314   3     -1.3782300000000001      9.5837800000000009      19.525099999999998
   315   4      8.4739500000000003                 12.2753      22.309100000000001
   316   3     -5.5339700000000001                 12.4778      21.490100000000002
   317   3      7.9381000000000004      13.130599999999999      22.553799999999999
   318   4      2.9106100000000001                 14.1807      23.737500000000001
   319   3      2.0187400000000002      13.926600000000001                 23.4633
   320   3      3.3386900000000002                 14.3192                  22.855
   321   4      3.2615699999999999      4.7886899999999999      18.239000000000001
   322   3      3.6472199999999999      5.7636099999999999                 18.2316
   323   3      2.3718499999999998      4.9089999999999998      17.879200000000001
   324   4                 2.01966      8.6269500000000008      16.447399999999998
   325   3                 1.32325      8.1204499999999999      15.965199999999999
   326   3                 2.70343      9.1181400000000004      15.883800000000001
   327   4      10.036799999999999      4.8488300000000004                 21.5107
   328   3                 10.8865      3.9594999999999998                 13.4626
   329   3                 10.5486      4.0762999999999998      21.289000000000001
   330   4      8.1627899999999993      2.5029400000000002      27.185700000000001
   331   3      8.5020799999999994                 3.47357      27.054400000000001
   332   3      7.4141000000000004                 2.43954                 26.5655
   333   4      3.0684200000000001                 9.38992      27.557099999999998
   334   3      2.7011599999999998      9.9918200000000006      26.889199999999999
   335   3      3.4944600000000001      11.516400000000001                 15.4269
   336   4      1.3358099999999999      12.345000000000001      27.348299999999998
   337   3      10.467000000000001                 8.31982      25.023399999999999
   338   3                -2.65191      14.325799999999999                      26
   339   4                 11.0168      6.8444399999999996                 12.6793
   340   3     -2.6151300000000002      6.5768300000000002      12.374700000000001
   341   3      10.911099999999999      7.8504100000000001      12.757899999999999
   342   4     -3.5121799999999999      11.482200000000001      25.855799999999999
   343   3                -3.38849                   10.48      25.702500000000001
   344   3                -2.57809                 11.8119      25.600999999999999
   345   4                 1.75874      6.9990600000000001      27.177299999999999
   346   3      2.3811900000000001      6.8658599999999996      26.357399999999998
   347   3     0.89599700000000004                 7.07158                 26.7178
   348   4                 3.55531      7.0627300000000002                 25.1829
   349   3      4.3467599999999997      6.4510199999999998      25.260400000000001
   350   3      3.7996799999999999      8.0142900000000008      25.265799999999999
   351   4      7.3238599999999998      9.8869299999999996                  25.244
   352   3                 7.98231      9.9841899999999999      24.456900000000001
   353   3      7.4771700000000001      10.645799999999999      25.823499999999999
   354   4                 5.37514      8.1856600000000004      28.356400000000001
   355   3      4.7169800000000004      8.5313199999999991      27.669599999999999
   356   3                 12.2239      2.3234599999999999      21.896799999999999
   357   4      1.3898200000000001                 10.8483      22.377300000000002
   358   3     0.94915499999999997                 10.2654      21.681799999999999
   359   3      2.2607400000000002                 11.0924      22.008500000000002
   360   4      3.0648300000000002                 11.7296      16.298400000000001
   361   3      2.2755100000000001      12.308199999999999                 16.2331
   362   3      6.4130200000000004      6.0281500000000001                 19.6356
   363   4    0.014889400000000001      2.6129799999999999                 15.4276
   364   3    0.080645999999999995      2.4647100000000002                 14.4839
   365   3                 13.7934                 2.05138                 15.8413
   366   4                 10.8429      6.3208299999999999      17.743300000000001
   367   3      11.164999999999999      6.9031900000000004      18.485700000000001
   368   3      10.796900000000001      6.8666600000000004      16.939499999999999
   369   4     -2.5194800000000002      9.3559199999999993      16.448799999999999
   370   3     -3.0282499999999999      8.7047600000000003                 15.8653
   371   3     -2.1553499999999999      10.133699999999999      15.956799999999999
   372   4     -2.6793499999999999                 11.5199                 12.9152
   373   3     -2.1133700000000002      11.462300000000001                 12.1386
   374   3     -3.3258000000000001                 12.2979                 12.7761
   375   4      4.1029600000000004                  11.868                 21.8874
   376   3      4.8318300000000001                 11.4466                 21.4206
   377   3      3.7646700000000002                 12.5929      21.321400000000001
   378   4      3.7370399999999999      2.9859200000000001                 20.2559
   379   3      4.6779000000000002      3.2558500000000001      20.168399999999998
   380   3     0.59530000000000005      12.183999999999999                 26.8339
   381   4                 11.5634      3.7150300000000001                 14.1587
   382   3                 12.0777      2.9719000000000002      13.717499999999999
   383   3      1.3774599999999999      10.288600000000001      12.981299999999999
   384   4      5.0331000000000001      4.9147499999999997      25.615200000000002
   385   3      5.8325300000000002                 12.7821      19.848199999999999
   386   3      6.4672000000000001                 10.9518                   28.25
   387   4     -2.0551599999999999                 13.2859      17.931999999999999
   388   3     -2.1734599999999999      14.233000000000001                 17.5305
   389   3                -2.69502      13.155099999999999      18.647500000000001
   390   4                -1.90143      11.917899999999999                  15.334
   391   3     -2.1730100000000001      12.547800000000001      16.036000000000001
   392   3                -2.29358      12.284800000000001                 14.4963
   393   4      8.8636199999999992      9.9624699999999997      23.264299999999999
   394   3      9.7291600000000003      9.7171099999999999      23.682500000000001
   395   3      5.9747700000000004      7.5075799999999999      27.904900000000001
   396   4      6.6206500000000004                 14.4785                 22.6188
   397   3      6.7889999999999997      14.489599999999999      23.606400000000001
   398   3                 0.12467      2.4640399999999998      22.288699999999999
   399   4     -4.3739400000000002                 13.7888                 12.8626
   400   3      3.2691499999999998      2.0237500000000002                 12.4055
   401   3               -0.834291                  8.2904                 12.8714
   402   4                 11.3203      7.3830900000000002                 20.6892
   403   3                 10.4275      7.6759199999999996      20.939599999999999
   404   3     -2.7292299999999998      8.0914199999999994      20.127099999999999
   405   4      6.2336600000000004      3.4238200000000001                   19.68
   406   3      6.2747900000000003      2.6797399999999998      19.056699999999999
   407   3      6.2232099999999999      4.2542499999999999      19.059799999999999
   408   4     -4.0419700000000001      9.3124900000000004      12.338100000000001
   409   3      9.4197000000000006                 2.78111      15.585800000000001
   410   3     -3.4300700000000002                 10.0404                 12.5685
   411   4      2.2028699999999999      7.6571300000000004      12.673999999999999
   412   3                 1.33647                 7.93649                 12.2951
   413   3      2.0480499999999999      6.9058799999999998                 13.2425
   414   4  -0.0044110599999999996      7.1149899999999997                 23.2697
   415   3     0.87810299999999997      6.9893999999999998      22.850000000000001
   416   3    -0.65586900000000004      6.4342300000000003      22.772200000000002
   417   4      3.5893299999999999      12.244300000000001      25.765999999999998
   418   3      3.5556399999999999                 13.0014      25.104099999999999
   419   3    0.033846800000000003      4.1505900000000002                 19.6617
   420   4      7.8455000000000004      10.456099999999999      12.729799999999999
   421   3      7.5281599999999997      9.5978600000000007      12.491400000000001
   422   3      7.6390200000000004                 11.0367                 11.9816
   423   4      9.6648899999999998                 6.91974                 24.0307
   424   3                 8.66615      6.9871600000000003      24.142199999999999
   425   3     0.68607399999999996                 3.98889                 27.7211
   426   4      5.4545399999999997      2.2514500000000002      25.875800000000002
   427   3      5.3246399999999996                 2.19713                 24.8704
   428   3     -4.4918100000000001      12.825900000000001      25.564499999999999
   429   4      9.5858399999999993      8.3301599999999993                 27.9971
   430   3      9.8769200000000001      7.5874100000000002      28.550799999999999
   431   3      9.8035300000000003      9.1080299999999994      28.673500000000001
   432   4      7.1052099999999996      10.805999999999999                  15.474
   433   3      8.0049399999999995      10.973699999999999      15.805300000000001
   434   3                 7.20512                 10.8482                  14.487
   435   4    -0.82254300000000002                 12.0296      25.592500000000001
   436   3    -0.52931700000000004      12.613899999999999      24.851900000000001
   437   3    -0.57481800000000005      11.176600000000001      25.212800000000001
   438   4    -0.56452500000000005      9.2466699999999999      12.860799999999999
   439   3     -4.5293099999999997      14.098699999999999      13.821300000000001
   440   3    -0.55192799999999997      9.7219700000000007      12.021100000000001
   441   4      8.7001399999999993      8.0077700000000007      21.352499999999999
   442   3      8.5870999999999995      8.5261499999999995      22.145900000000001
   443   3      9.8235100000000006      5.2201500000000003      20.639199999999999
   444   4      6.4816700000000003      6.5920199999999998      20.475200000000001
   445   3      4.3133499999999998                 3.90584      17.184799999999999
   446   3      5.9141599999999999      6.1910800000000004      21.200299999999999
   447   4      7.3516199999999996      7.9333099999999996                 12.9771
   448   3      6.4582899999999999      7.6369199999999999                  13.266
   449   3      7.9491199999999997      7.2420099999999996                 12.7079
   450   4                0.534358      9.8087199999999992                 24.6066
   451   3      1.0195399999999999                  10.238      23.870899999999999
   452   3                0.228379      8.9477600000000006      24.208600000000001
   453   4      7.4023500000000002      6.9936199999999999      26.853000000000002
   454   3      7.0559700000000003      7.1064400000000001      25.954699999999999
   455   3                 10.5565      7.1748200000000004      14.335100000000001
   456   4     0.33601999999999999                 13.3888      23.330100000000002
   457   3     0.38059199999999999      14.127599999999999      22.616900000000001
   458   3                0.491616      12.565899999999999      22.873100000000001
   459   4      6.6634500000000001      8.9823599999999999                 18.9663
   460   3      7.4317500000000001      8.6871700000000001      18.426400000000001
   461   3      4.6574900000000001      4.0198600000000004      25.819700000000001
   462   4      1.1527000000000001      5.0091400000000004      16.578099999999999
   463   3                  6.5118      3.8727999999999998      13.602499999999999
   464   3     0.55709600000000004      5.6909900000000002      16.994700000000002
   465   4      1.0557399999999999      4.6756599999999997      28.253399999999999
   466   3      2.7858900000000002      12.282400000000001      26.335000000000001
   467   3      1.1176600000000001      5.4498600000000001      27.686900000000001
   468   4                 5.05579      8.9773899999999998      16.203900000000001
   469   3                 5.81121      9.5886099999999992                  15.964
   470   3      5.1255300000000004      8.8006100000000007      17.205400000000001
   471   4      6.8630000000000004                 2.46529      14.910500000000001
   472   3      7.6088699999999996                 2.98129                 15.3089
   473   3    0.040690299999999999      14.417999999999999                 14.2689
   474   4     -1.0542199999999999                 4.43926                  25.125
   475   3                 12.5044      4.1640699999999997                 24.9848
   476   3     -1.1207800000000001      5.3427300000000004                 25.5672
   477   4      2.3892600000000002      14.069000000000001      14.395799999999999
   478   3      1.7907299999999999      13.882300000000001      13.643700000000001
   479   3      3.3159800000000001                 14.1759      14.043100000000001
   480   4      9.0304300000000008                 3.41588      16.206299999999999
   481   3      9.1334400000000002      2.9634200000000002                 17.0977
   482   3      9.4610000000000003      9.4803700000000006                 12.5502
   483   2    0.069566500000000003      5.5180999999999996      11.661799999999999
   484   4    -0.51595800000000003      6.6017900000000003      11.781700000000001
   485   4     0.77822499999999994      5.0459100000000001                 12.7667
   486   3      11.750999999999999      4.7122400000000004      17.408899999999999
